! SHBT-R 12-layer Rogers RO4350B interposer S-parameters
! 2-port Touchstone file (real-imag), reference 50 Ohm
# Hz S RI R 50.0
 0.00000000000000e+00  0.00000000000000e+00  0.00000000000000e+00  1.00000000000000e+00  0.00000000000000e+00  1.00000000000000e+00  0.00000000000000e+00  0.00000000000000e+00  0.00000000000000e+00
 5.00000000000000e+07  4.73080861522276e-06  4.18210420886764e-05  9.98177528791127e-01 -1.74783833749053e-02  9.98177528791127e-01 -1.74783833749053e-02  4.73080861522276e-06  4.18210420886764e-05
 1.00000000000000e+08  8.61291791247752e-06  8.34725301186141e-05  9.97012409567209e-01 -3.49266722659819e-02  9.97012409567209e-01 -3.49266722659819e-02  8.61291791247752e-06  8.34725301186141e-05
 1.50000000000000e+08  1.35679287343321e-05  1.24943444402620e-04  9.95700751471206e-01 -5.23478476289767e-02  9.95700751471206e-01 -5.23478476289767e-02  1.35679287343321e-05  1.24943444402620e-04
 2.00000000000000e+08  1.97714501665168e-05  1.66197376768866e-04  9.94166697634075e-01 -6.97395494512431e-02  9.94166697634075e-01 -6.97395494512431e-02  1.97714501665168e-05  1.66197376768866e-04
 2.50000000000000e+08  2.72855674900015e-05  2.07192214738556e-04  9.92381252398430e-01 -8.70981754697127e-02  9.92381252398430e-01 -8.70981754697127e-02  2.72855674900015e-05  2.07192214738556e-04
 3.00000000000000e+08  3.61363417443018e-05  2.47883520339255e-04  9.90329901482547e-01 -1.04419577067314e-01  9.90329901482547e-01 -1.04419577067314e-01  3.61363417443018e-05  2.47883520339255e-04
 3.50000000000000e+08  4.63335286881147e-05  2.88225781545636e-04  9.88004364341382e-01 -1.21699310754131e-01  9.88004364341382e-01 -1.21699310754131e-01  4.63335286881147e-05  2.88225781545636e-04
 4.00000000000000e+08  5.78777836926683e-05  3.28173023750634e-04  9.85399578878847e-01 -1.38932755847862e-01  9.85399578878847e-01 -1.38932755847862e-01  5.78777836926683e-05  3.28173023750634e-04
 4.50000000000000e+08  7.07638771782939e-05  3.67679164644529e-04  9.82512356764058e-01 -1.56115178492775e-01  9.82512356764058e-01 -1.56115178492775e-01  7.07638771782939e-05  3.67679164644529e-04
 5.00000000000000e+08  8.49823324297010e-05  4.06698247355111e-04  9.79340700796911e-01 -1.73241770243511e-01  9.79340700796911e-01 -1.73241770243511e-01  8.49823324297010e-05  4.06698247355111e-04
 5.50000000000000e+08  1.00520344589983e-04  4.45184608811263e-04  9.75883424848571e-01 -1.90307673158524e-01  9.75883424848571e-01 -1.90307673158524e-01  1.00520344589983e-04  4.45184608811263e-04
 6.00000000000000e+08  1.17362337266580e-04  4.83093010565142e-04  9.72139927012658e-01 -2.07307997129132e-01  9.72139927012658e-01 -2.07307997129132e-01  1.17362337266580e-04  4.83093010565142e-04
 6.50000000000000e+08  1.35490322047344e-04  5.20378746325283e-04  9.68110046606594e-01 -2.24237832451530e-01  9.68110046606594e-01 -2.24237832451530e-01  1.35490322047344e-04  5.20378746325283e-04
 7.00000000000000e+08  1.54884144366149e-04  5.56997734189559e-04  9.63793969958498e-01 -2.41092259336176e-01  9.63793969958498e-01 -2.41092259336176e-01  1.54884144366149e-04  5.56997734189559e-04
 7.50000000000000e+08  1.75521660751926e-04  5.92906598303561e-04  9.59192166018942e-01 -2.57866355364052e-01  9.59192166018942e-01 -2.57866355364052e-01  1.75521660751926e-04  5.92906598303561e-04
 8.00000000000000e+08  1.97378873127527e-04  6.28062742862413e-04  9.54305340967371e-01 -2.74555201519296e-01  9.54305340967371e-01 -2.74555201519296e-01  1.97378873127527e-04  6.28062742862413e-04
 8.50000000000000e+08  2.20430035460434e-04  6.62424420320497e-04  9.49134405338806e-01 -2.91153887205946e-01  9.49134405338806e-01 -2.91153887205946e-01  2.20430035460434e-04  6.62424420320497e-04
 9.00000000000000e+08  2.44647742237128e-04  6.95950795034543e-04  9.43680449648397e-01 -3.07657514521458e-01  9.43680449648397e-01 -3.07657514521458e-01  2.44647742237128e-04  6.95950795034543e-04
 9.50000000000000e+08  2.70003004816874e-04  7.28602003161707e-04  9.37944725930891e-01 -3.24061201974484e-01  9.37944725930891e-01 -3.24061201974484e-01  2.70003004816874e-04  7.28602003161707e-04
 1.00000000000000e+09  2.96465319640272e-04  7.60339209374557e-04  9.31928633488240e-01 -3.40360087778845e-01  9.31928633488240e-01 -3.40360087778845e-01  2.96465319640272e-04  7.60339209374557e-04
 1.05000000000000e+09  3.24002730966291e-04  7.91124660779507e-04  9.25633707688889e-01 -3.56549332818572e-01  9.25633707688889e-01 -3.56549332818572e-01  3.24002730966291e-04  7.91124660779507e-04
 1.10000000000000e+09  3.52581889968477e-04  8.20921738308103e-04  9.19061611017634e-01 -3.72624123353430e-01  9.19061611017634e-01 -3.72624123353430e-01  3.52581889968477e-04  8.20921738308103e-04
 1.15000000000000e+09  3.82168111464227e-04  8.49695005767932e-04  9.12214125810018e-01 -3.88579673516577e-01  9.12214125810018e-01 -3.88579673516577e-01  3.82168111464227e-04  8.49695005767932e-04
 1.20000000000000e+09  4.12725429176908e-04  8.77410256682695e-04  9.05093148264250e-01 -4.04411227643324e-01  9.05093148264250e-01 -4.04411227643324e-01  4.12725429176908e-04  8.77410256682695e-04
 1.25000000000000e+09  4.44216650170008e-04  9.04034559008385e-04  8.97700683433261e-01 -4.20114062460791e-01  8.97700683433261e-01 -4.20114062460791e-01  4.44216650170008e-04  9.04034559008385e-04
 1.30000000000000e+09  4.76603408908852e-04  9.29536297784766e-04  8.90038840976467e-01 -4.35683489161485e-01  8.90038840976467e-01 -4.35683489161485e-01  4.76603408908852e-04  9.29536297784766e-04
 1.35000000000000e+09  5.09846221278261e-04  9.53885215758124e-04  8.82109831505724e-01 -4.51114855378768e-01  8.82109831505724e-01 -4.51114855378768e-01  5.09846221278261e-04  9.53885215758124e-04
 1.40000000000000e+09  5.43904538787377e-04  9.77052451995789e-04  8.73915963399674e-01 -4.66403547078410e-01  8.73915963399674e-01 -4.66403547078410e-01  5.43904538787377e-04  9.77052451995789e-04
 1.45000000000000e+09  5.78736803125117e-04  9.99010578502128e-04  8.65459639989842e-01 -4.81544990377459e-01  8.65459639989842e-01 -4.81544990377459e-01  5.78736803125117e-04  9.99010578502128e-04
 1.50000000000000e+09  6.14300501176962e-04  1.01973363483706e-03  8.56743357043490e-01 -4.96534653299465e-01  8.56743357043490e-01 -4.96534653299465e-01  6.14300501176962e-04  1.01973363483706e-03
 1.55000000000000e+09  6.50552220574693e-04  1.03919716073094e-03  8.47769700484486e-01 -5.11368047473275e-01  8.47769700484486e-01 -5.11368047473275e-01  6.50552220574693e-04  1.03919716073094e-03
 1.60000000000000e+09  6.87447705822132e-04  1.05737822668855e-03  8.38541344305817e-01 -5.26040729781316e-01  8.38541344305817e-01 -5.26040729781316e-01  6.87447705822132e-04  1.05737822668855e-03
 1.65000000000000e+09  7.24941915014224e-04  1.07425546256811e-03  8.29061048636809e-01 -5.40548303962096e-01  8.29061048636809e-01 -5.40548303962096e-01  7.24941915014224e-04  1.07425546256811e-03
 1.70000000000000e+09  7.62989077151689e-04  1.08980908412344e-03  8.19331657935453e-01 -5.54886422170868e-01  8.19331657935453e-01 -5.54886422170868e-01  7.62989077151689e-04  1.08980908412344e-03
 1.75000000000000e+09  8.01542750036822e-04  1.10402091749267e-03  8.09356099281967e-01 -5.69050786501619e-01  8.09356099281967e-01 -5.69050786501619e-01  8.01542750036822e-04  1.10402091749267e-03
 1.80000000000000e+09  8.40555878726815e-04  1.11687442162136e-03  7.99137380754170e-01 -5.83037150473027e-01  7.99137380754170e-01 -5.83037150473027e-01  8.40555878726815e-04  1.11687442162136e-03
 1.85000000000000e+09  8.79980854509810e-04  1.12835470860228e-03  7.88678589868870e-01 -5.96841320480545e-01  7.88678589868870e-01 -5.96841320480545e-01  8.79980854509810e-04  1.12835470860228e-03
 1.90000000000000e+09  9.19769574363425e-04  1.13844856192069e-03  7.77982892076240e-01 -6.10459157216376e-01  7.77982892076240e-01 -6.10459157216376e-01  9.19769574363425e-04  1.13844856192069e-03
 1.95000000000000e+09  9.59873500848477e-04  1.14714445259073e-03  7.67053529296505e-01 -6.23886577058822e-01  7.67053529296505e-01 -6.23886577058822e-01  9.59873500848477e-04  1.14714445259073e-03
 2.00000000000000e+09  1.00024372238596e-03  1.15443255317218e-03  7.55893818490043e-01 -6.37119553432184e-01  7.55893818490043e-01 -6.37119553432184e-01  1.00024372238596e-03  1.15443255317218e-03
 2.05000000000000e+09  1.04083101386206e-03  1.16030474965674e-03  7.44507150253571e-01 -6.50154118138219e-01  7.44507150253571e-01 -6.50154118138219e-01  1.04083101386206e-03  1.16030474965674e-03
 2.10000000000000e+09  1.08158589750118e-03  1.16475465121658e-03  7.32896987436261e-01 -6.62986362659951e-01  7.32896987436261e-01 -6.62986362659951e-01  1.08158589750118e-03  1.16475465121658e-03
 2.15000000000000e+09  1.12245870394665e-03  1.16777759780867e-03  7.21066863770659e-01 -6.75612439438487e-01  7.21066863770659e-01 -6.75612439438487e-01  1.12245870394665e-03  1.16777759780867e-03
 2.20000000000000e+09  1.16339963348360e-03  1.16937066562875e-03  7.09020382514127e-01 -6.88028563123363e-01  7.09020382514127e-01 -6.88028563123363e-01  1.16339963348360e-03  1.16937066562875e-03
 2.25000000000000e+09  1.20435881733996e-03  1.16953267041554e-03  6.96761215097202e-01 -7.00231011796845e-01  6.96761215097202e-01 -7.00231011796845e-01  1.20435881733996e-03  1.16953267041554e-03
 2.30000000000000e+09  1.24528637899740e-03  1.16826416860244e-03  6.84293099775853e-01 -7.12216128172513e-01  6.84293099775853e-01 -7.12216128172513e-01  1.24528637899740e-03  1.16826416860244e-03
 2.35000000000000e+09  1.28613249544500e-03  1.16556745632020e-03  6.71619840285096e-01 -7.23980320768366e-01  6.71619840285096e-01 -7.23980320768366e-01  1.28613249544500e-03  1.16556745632020e-03
 2.40000000000000e+09  1.32684745830529e-03  1.16144656625428e-03  6.58745304491850e-01 -7.35520065054652e-01  6.58745304491850e-01 -7.35520065054652e-01  1.32684745830529e-03  1.16144656625428e-03
 2.45000000000000e+09  1.36738173476461e-03  1.15590726236417e-03  6.45673423045238e-01 -7.46831904576547e-01  6.45673423045238e-01 -7.46831904576547e-01  1.36738173476461e-03  1.15590726236417e-03
 2.50000000000000e+09  1.40768602823697e-03  1.14895703247283e-03  6.32408188022845e-01 -7.57912452051768e-01  6.32408188022845e-01 -7.57912452051768e-01  1.40768602823697e-03  1.14895703247283e-03
 2.55000000000000e+09  1.44771133869038e-03  1.14060507873883e-03  6.18953651571703e-01 -7.68758390443166e-01  6.18953651571703e-01 -7.68758390443166e-01  1.44771133869038e-03  1.14060507873883e-03
 2.60000000000000e+09  1.48740902256751e-03  1.13086230602377e-03  6.05313924542962e-01 -7.79366474006312e-01  6.05313924542962e-01 -7.79366474006312e-01  1.48740902256751e-03  1.13086230602377e-03
 2.65000000000000e+09  1.52673085222813e-03  1.11974130817208e-03  5.91493175119405e-01 -7.89733529312059e-01  5.91493175119405e-01 -7.89733529312059e-01  1.52673085222813e-03  1.11974130817208e-03
 2.70000000000000e+09  1.56562907484454e-03  1.10725635222161e-03  5.77495627435125e-01 -7.99856456244043e-01  5.77495627435125e-01 -7.99856456244043e-01  1.56562907484454e-03  1.10725635222161e-03
 2.75000000000000e+09  1.60405647068085e-03  1.09342336056547e-03  5.63325560186810e-01 -8.09732228971062e-01  5.63325560186810e-01 -8.09732228971062e-01  1.60405647068085e-03  1.09342336056547e-03
 2.80000000000000e+09  1.64196641068650e-03  1.07825989108965e-03  5.48987305236197e-01 -8.19357896894245e-01  5.48987305236197e-01 -8.19357896894245e-01  1.64196641068650e-03  1.07825989108965e-03
 2.85000000000000e+09  1.67931291333406e-03  1.06178511531047e-03  5.34485246203379e-01 -8.28730585568951e-01  5.34485246203379e-01 -8.28730585568951e-01  1.67931291333406e-03  1.06178511531047e-03
 2.90000000000000e+09  1.71605070063787e-03  1.04401979454177e-03  5.19823817050708e-01 -8.37847497601256e-01  5.19823817050708e-01 -8.37847497601256e-01  1.71605070063787e-03  1.04401979454177e-03
 2.95000000000000e+09  1.75213525328154e-03  1.02498625412120e-03  5.05007500657147e-01 -8.46705913518953e-01  5.05007500657147e-01 -8.46705913518953e-01  1.75213525328154e-03  1.02498625412120e-03
 3.00000000000000e+09  1.78752286479241e-03  1.00470835572836e-03  4.90040827382966e-01 -8.55303192616922e-01  4.90040827382966e-01 -8.55303192616922e-01  1.78752286479241e-03  1.00470835572836e-03
 3.05000000000000e+09  1.82217069469595e-03  9.83211467829734e-04  4.74928373624756e-01 -8.63636773776769e-01  4.74928373624756e-01 -8.63636773776769e-01  1.82217069469595e-03  9.83211467829734e-04
 3.10000000000000e+09  1.85603682058796e-03  9.60522434288652e-04  4.59674760360783e-01 -8.71704176260580e-01  4.59674760360783e-01 -8.71704176260580e-01  1.85603682058796e-03  9.60522434288652e-04
 3.15000000000000e+09  1.88908028906018e-03  9.36669541177723e-04  4.44284651686743e-01 -8.79503000478684e-01  4.44284651686743e-01 -8.79503000478684e-01  1.88908028906018e-03  9.36669541177723e-04
 3.20000000000000e+09  1.92126116542041e-03  9.11682481837004e-04  4.28762753342037e-01 -8.87030928731285e-01  4.28762753342037e-01 -8.87030928731285e-01  1.92126116542041e-03  9.11682481837004e-04
 3.25000000000000e+09  1.95254058214606e-03  8.85592320220592e-04  4.13113811226713e-01 -8.94285725923822e-01  4.13113811226713e-01 -8.94285725923822e-01  1.95254058214606e-03  8.85592320220592e-04
 3.30000000000000e+09  1.98288078601372e-03  8.58431452577538e-04  3.97342609909246e-01 -9.01265240255937e-01  3.97342609909246e-01 -9.01265240255937e-01  1.98288078601372e-03  8.58431452577538e-04
 3.35000000000000e+09  2.01224518384702e-03  8.30233567514653e-04  3.81453971125378e-01 -9.07967403883917e-01  3.81453971125378e-01 -9.07967403883917e-01  2.01224518384702e-03  8.30233567514653e-04
 3.40000000000000e+09  2.04059838682931e-03  8.01033604490652e-04  3.65452752268257e-01 -9.14390233556475e-01  3.65452752268257e-01 -9.14390233556475e-01  2.04059838682931e-03  8.01033604490652e-04
 3.45000000000000e+09  2.06790625332690e-03  7.70867710793482e-04  3.49343844870123e-01 -9.20531831223752e-01  3.49343844870123e-01 -9.20531831223752e-01  2.06790625332690e-03  7.70867710793482e-04
 3.50000000000000e+09  2.09413593017206e-03  7.39773197053577e-04  3.33132173075837e-01 -9.26390384619411e-01  3.33132173075837e-01 -9.26390384619411e-01  2.09413593017206e-03  7.39773197053577e-04
 3.55000000000000e+09  2.11925589235527e-03  7.07788491348260e-04  3.16822692108554e-01 -9.31964167815705e-01  3.16822692108554e-01 -9.31964167815705e-01  2.11925589235527e-03  7.07788491348260e-04
 3.60000000000000e+09  2.14323598108024e-03  6.74953091954231e-04  3.00420386727853e-01 -9.37251541751403e-01  3.00420386727853e-01 -9.37251541751403e-01  2.14323598108024e-03  6.74953091954231e-04
 3.65000000000000e+09  2.16604744013534e-03  6.41307518805780e-04  2.83930269680664e-01 -9.42250954732459e-01  2.83930269680664e-01 -9.42250954732459e-01  2.16604744013534e-03  6.41307518805780e-04
 3.70000000000000e+09  2.18766295053745e-03  6.06893263719348e-04  2.67357380145348e-01 -9.46960942905329e-01  2.67357380145348e-01 -9.46960942905329e-01  2.18766295053745e-03  6.06893263719348e-04
 3.75000000000000e+09  2.20805666340806e-03  5.71752739445315e-04  2.50706782169280e-01 -9.51380130702816e-01  2.50706782169280e-01 -9.51380130702816e-01  2.20805666340806e-03  5.71752739445315e-04
 3.80000000000000e+09  2.22720423104056e-03  5.35929227609617e-04  2.33983563100320e-01 -9.55507231262365e-01  2.33983563100320e-01 -9.55507231262365e-01  2.22720423104056e-03  5.35929227609617e-04
 3.85000000000000e+09  2.24508283612279e-03  4.99466825609792e-04  2.17192832012560e-01 -9.59341046816709e-01  2.17192832012560e-01 -9.59341046816709e-01  2.24508283612279e-03  4.99466825609792e-04
 3.90000000000000e+09  2.26167121907893e-03  4.62410392529967e-04  2.00339718126727e-01 -9.62880469056774e-01  2.00339718126727e-01 -9.62880469056774e-01  2.26167121907893e-03  4.62410392529967e-04
 3.95000000000000e+09  2.27694970349980e-03  4.24805494142245e-04  1.83429369225664e-01 -9.66124479466793e-01  1.83429369225664e-01 -9.66124479466793e-01  2.27694970349980e-03  4.24805494142245e-04
 4.00000000000000e+09  2.29090021962830e-03  3.86698347060876e-04  1.66466950065286e-01 -9.69072149631517e-01  1.66466950065286e-01 -9.69072149631517e-01  2.29090021962830e-03  3.86698347060876e-04
 4.05000000000000e+09  2.30350632587544e-03  3.48135762118893e-04  1.49457640781444e-01 -9.71722641515491e-01  1.49457640781444e-01 -9.71722641515491e-01  2.30350632587544e-03  3.48135762118893e-04
 4.10000000000000e+09  2.31475322833911e-03  3.09165087035920e-04  1.32406635293107e-01 -9.74075207714326e-01  1.32406635293107e-01 -9.74075207714326e-01  2.31475322833911e-03  3.09165087035920e-04
 4.15000000000000e+09  2.32462779830292e-03  2.69834148447763e-04  1.15319139702310e-01 -9.76129191677908e-01  1.15319139702310e-01 -9.76129191677908e-01  2.32462779830292e-03  2.69834148447763e-04
 4.20000000000000e+09  2.33311858769511e-03  2.30191193368880e-04  9.82003706912880e-02 -9.77884027905513e-01  9.82003706912880e-02 -9.77884027905513e-01  2.33311858769511e-03  2.30191193368880e-04
 4.25000000000000e+09  2.34021584248906e-03  1.90284830159359e-04  8.10555539172522e-02 -9.79339242112777e-01  8.10555539172522e-02 -9.79339242112777e-01  2.34021584248906e-03  1.90284830159359e-04
 4.30000000000000e+09  2.34591151402923e-03  1.50163969068818e-04  6.38899224052468e-02 -9.80494451370512e-01  6.38899224052468e-02 -9.80494451370512e-01  2.34591151402923e-03  1.50163969068818e-04
 4.35000000000000e+09  2.35019926827067e-03  1.09877762429996e-04  4.67087149395384e-02 -9.81349364215315e-01  4.67087149395384e-02 -9.81349364215315e-01  2.35019926827067e-03  1.09877762429996e-04
 4.40000000000000e+09  2.35307449291949e-03  6.94755445750960e-05  2.95171744539890e-02 -9.81903780731989e-01  2.95171744539890e-02 -9.81903780731989e-01  2.35307449291949e-03  6.94755445750960e-05
 4.45000000000000e+09  2.35453430246894e-03  2.90067715487409e-05  1.23205464218699e-02 -9.82157592607741e-01  1.23205464218699e-02 -9.82157592607741e-01  2.35453430246894e-03  2.90067715487409e-05
 4.50000000000000e+09  2.35457754112347e-03 -1.14790393090854e-05 -4.87592275442019e-03 -9.82110783158177e-01 -4.87592275442019e-03 -9.82110783158177e-01  2.35457754112347e-03 -1.14790393090854e-05
 4.55000000000000e+09  2.35320478360823e-03 -5.19323698359927e-05 -2.20669873532779e-02 -9.81763427325089e-01 -2.20669873532779e-02 -9.81763427325089e-01  2.35320478360823e-03 -5.19323698359927e-05
 4.60000000000000e+09  2.35041833386578e-03 -9.23037615022126e-05 -3.92474039429921e-02 -9.81115691646053e-01 -3.92474039429921e-02 -9.81115691646053e-01  2.35041833386578e-03 -9.23037615022126e-05
 4.65000000000000e+09  2.34622222163891e-03 -1.32543875773816e-04 -5.64119329895526e-02 -9.80167834195877e-01 -5.64119329895526e-02 -9.80167834195877e-01  2.34622222163891e-03 -1.32543875773816e-04
 4.70000000000000e+09  2.34062219694731e-03 -1.72603554310352e-04 -7.35553404627004e-02 -9.78920204499899e-01 -7.35553404627004e-02 -9.78920204499899e-01  2.34062219694731e-03 -1.72603554310352e-04
 4.75000000000000e+09  2.33362572246450e-03 -2.12433878923477e-04 -9.06723994397532e-02 -9.77373243419203e-01 -9.06723994397532e-02 -9.77373243419203e-01  2.33362572246450e-03 -2.12433878923477e-04
 4.80000000000000e+09  2.32524196380429e-03 -2.51986231223257e-04 -1.07757891706743e-01 -9.75527483007794e-01 -1.07757891706743e-01 -9.75527483007794e-01  2.32524196380429e-03 -2.51986231223257e-04
 4.85000000000000e+09  2.31548177773019e-03 -2.91212351879434e-04 -1.24806609356392e-01 -9.73383546341778e-01 -1.24806609356392e-01 -9.73383546341778e-01  2.31548177773019e-03 -2.91212351879434e-04
 4.90000000000000e+09  2.30435769830377e-03 -3.30064399425440e-04 -1.41813356382453e-01 -9.70942147320610e-01 -1.41813356382453e-01 -9.70942147320610e-01  2.30435769830377e-03 -3.30064399425440e-04
 4.95000000000000e+09  2.29188392098634e-03 -3.68495008533224e-04 -1.58772950269964e-01 -9.68204090440504e-01 -1.58772950269964e-01 -9.68204090440504e-01  2.29188392098634e-03 -3.68495008533224e-04
 5.00000000000000e+09  2.27807628471812e-03 -4.06457347687988e-04 -1.75680223580921e-01 -9.65170270540056e-01 -1.75680223580921e-01 -9.65170270540056e-01  2.27807628471812e-03 -4.06457347687988e-04
 5.05000000000000e+09  2.26295225199439e-03 -4.43905176192769e-04 -1.92530025534923e-01 -9.61841672518178e-01 -1.92530025534923e-01 -9.61841672518178e-01  2.26295225199439e-03 -4.43905176192769e-04
 5.10000000000000e+09  2.24653088696493e-03 -4.80792900432800e-04 -2.09317223584313e-01 -9.58219371024451e-01 -2.09317223584313e-01 -9.58219371024451e-01  2.24653088696493e-03 -4.80792900432800e-04
 5.15000000000000e+09  2.22883283158347e-03 -5.17075629331764e-04 -2.26036704983347e-01 -9.54304530121976e-01 -2.26036704983347e-01 -9.54304530121976e-01  2.22883283158347e-03 -5.17075629331764e-04
 5.20000000000000e+09  2.20988027983828e-03 -5.52709228932202e-04 -2.42683378350925e-01 -9.50098402922858e-01 -2.42683378350925e-01 -9.50098402922858e-01  2.20988027983828e-03 -5.52709228932202e-04
 5.25000000000000e+09  2.18969695009336e-03 -5.87650376033285e-04 -2.59252175226418e-01 -9.45602331196423e-01 -2.59252175226418e-01 -9.45602331196423e-01  2.18969695009336e-03 -5.87650376033285e-04
 5.30000000000000e+09  2.16830805557846e-03 -6.21856610821689e-04 -2.75738051618138e-01 -9.40817744950318e-01 -2.75738051618138e-01 -9.40817744950318e-01  2.16830805557846e-03 -6.21856610821689e-04
 5.35000000000000e+09  2.14574027305979e-03 -6.55286388429968e-04 -2.92135989543974e-01 -9.35746161984596e-01 -2.92135989543974e-01 -9.35746161984596e-01  2.14574027305979e-03 -6.55286388429968e-04
 5.40000000000000e+09  2.12202170973527e-03 -6.87899129361730e-04 -3.08440998563743e-01 -9.30389187418968e-01 -3.08440998563743e-01 -9.30389187418968e-01  2.12202170973527e-03 -6.87899129361730e-04
 5.45000000000000e+09  2.09718186839106e-03 -7.19655268720443e-04 -3.24648117302797e-01 -9.24748513193344e-01 -3.24648117302797e-01 -9.24748513193344e-01  2.09718186839106e-03 -7.19655268720443e-04
 5.50000000000000e+09  2.07125161086518e-03 -7.50516304183562e-04 -3.40752414966430e-01 -9.18825917541829e-01 -3.40752414966430e-01 -9.18825917541829e-01  2.07125161086518e-03 -7.50516304183562e-04
 5.55000000000000e+09  2.04426311986253e-03 -7.80444842662762e-04 -3.56748992844628e-01 -9.12623264440360e-01 -3.56748992844628e-01 -9.12623264440360e-01  2.04426311986253e-03 -7.80444842662762e-04
 5.60000000000000e+09  2.01624985916789e-03 -8.09404645594189e-04 -3.72632985806722e-01 -9.06142503028119e-01 -3.72632985806722e-01 -9.06142503028119e-01  2.01624985916789e-03 -8.09404645594189e-04
 5.65000000000000e+09  1.98724653230721e-03 -8.37360672803659e-04 -3.88399563785473e-01 -8.99385667002953e-01 -3.88399563785473e-01 -8.99385667002953e-01  1.98724653230721e-03 -8.37360672803659e-04
 5.70000000000000e+09  1.95728903970721e-03 -8.64279124893531e-04 -4.04043933250176e-01 -8.92354873990943e-01 -4.04043933250176e-01 -8.92354873990943e-01  1.95728903970721e-03 -8.64279124893531e-04
 5.75000000000000e+09  1.92641443440659e-03 -8.90127484100104e-04 -4.19561338668305e-01 -8.85052324890366e-01 -4.19561338668305e-01 -8.85052324890366e-01  1.92641443440659e-03 -8.90127484100104e-04
 5.80000000000000e+09  1.89466087637303e-03 -9.14874553571859e-04 -4.34947063955294e-01 -8.77480303190209e-01 -4.34947063955294e-01 -8.77480303190209e-01  1.89466087637303e-03 -9.14874553571859e-04
 5.85000000000000e+09  1.86206758548254e-03 -9.38490495021126e-04 -4.50196433911989e-01 -8.69641174263493e-01 -4.50196433911989e-01 -8.69641174263493e-01  1.86206758548254e-03 -9.38490495021126e-04
 5.90000000000000e+09  1.82867479321947e-03 -9.60946864704028e-04 -4.65304815649352e-01 -8.61537384635592e-01 -4.65304815649352e-01 -8.61537384635592e-01  1.82867479321947e-03 -9.60946864704028e-04
 5.95000000000000e+09  1.79452369315535e-03 -9.82216647684430e-04 -4.80267619999995e-01 -8.53171461227795e-01 -4.80267619999995e-01 -8.53171461227795e-01  1.79452369315535e-03 -9.82216647684430e-04
 6.00000000000000e+09  1.75965639026799e-03 -1.00227429034084e-03 -4.95080302916100e-01 -8.44546010576338e-01 -4.95080302916100e-01 -8.44546010576338e-01  1.75965639026799e-03 -1.00227429034084e-03
 6.05000000000000e+09  1.72411584916470e-03 -1.02109573107837e-03 -5.09738366853322e-01 -8.35663718027157e-01 -5.09738366853322e-01 -8.35663718027157e-01  1.72411584916470e-03 -1.02109573107837e-03
 6.10000000000000e+09  1.68794584127039e-03 -1.03865842920625e-03 -5.24237362140241e-01 -8.26527346906599e-01 -5.24237362140241e-01 -8.26527346906599e-01  1.68794584127039e-03 -1.03865842920625e-03
 6.15000000000000e+09  1.65119089104725e-03 -1.05494139194806e-03 -5.38572888332967e-01 -8.17139737668360e-01 -5.38572888332967e-01 -8.17139737668360e-01  1.65119089104725e-03 -1.05494139194806e-03
 6.20000000000000e+09  1.61389622131231e-03 -1.06992519955247e-03 -5.52740595554475e-01 -8.07503807016910e-01 -5.52740595554475e-01 -8.07503807016910e-01  1.61389622131231e-03 -1.06992519955247e-03
 6.25000000000000e+09  1.57610769771832e-03 -1.08359202847207e-03 -5.66736185818276e-01 -7.97622547007674e-01 -5.66736185818276e-01 -7.97622547007674e-01  1.57610769771832e-03 -1.08359202847207e-03
 6.30000000000000e+09  1.53787177246778e-03 -1.09592567258575e-03 -5.80555414336012e-01 -7.87499024124258e-01 -5.80555414336012e-01 -7.87499024124258e-01  1.53787177246778e-03 -1.09592567258575e-03
 6.35000000000000e+09  1.49923542732828e-03 -1.10691156243649e-03 -5.94194090808596e-01 -7.77136378332984e-01 -5.94194090808596e-01 -7.77136378332984e-01  1.49923542732828e-03 -1.10691156243649e-03
 6.40000000000000e+09  1.46024611601849e-03 -1.11653678246323e-03 -6.07648080700488e-01 -7.66537822115054e-01 -6.07648080700488e-01 -7.66537822115054e-01  1.46024611601849e-03 -1.11653678246323e-03
 6.45000000000000e+09  1.42095170603711e-03 -1.12479008620606e-03 -6.20913306496749e-01 -7.55706639476615e-01 -6.20913306496749e-01 -7.55706639476615e-01  1.42095170603711e-03 -1.12479008620606e-03
 6.50000000000000e+09  1.38140042000449e-03 -1.13166190946640e-03 -6.33985748942450e-01 -7.44646184937060e-01 -6.33985748942450e-01 -7.44646184937060e-01  1.38140042000449e-03 -1.13166190946640e-03
 6.55000000000000e+09  1.34164077658875e-03 -1.13714438140720e-03 -6.46861448264114e-01 -7.33359882495837e-01 -6.46861448264114e-01 -7.33359882495837e-01  1.34164077658875e-03 -1.13714438140720e-03
 6.60000000000000e+09  1.30172153108992e-03 -1.14123133357950e-03 -6.59536505372777e-01 -7.21851224578134e-01 -6.59536505372777e-01 -7.21851224578134e-01  1.30172153108992e-03 -1.14123133357950e-03
 6.65000000000000e+09  1.26169161575424e-03 -1.14391830686602e-03 -6.72007083048327e-01 -7.10123770959717e-01 -6.72007083048327e-01 -7.10123770959717e-01  1.26169161575424e-03 -1.14391830686602e-03
 6.70000000000000e+09  1.22160007989069e-03 -1.14520255633298e-03 -6.84269407104759e-01 -6.98181147671297e-01 -6.84269407104759e-01 -6.98181147671297e-01  1.22160007989069e-03 -1.14520255633298e-03
 6.75000000000000e+09  1.18149602986478e-03 -1.14508305398507e-03 -6.96319767535984e-01 -6.86027045882716e-01 -6.96319767535984e-01 -6.86027045882716e-01  1.18149602986478e-03 -1.14508305398507e-03
 6.80000000000000e+09  1.14142856904153e-03 -1.14356048942135e-03 -7.08154519641864e-01 -6.73665220767346e-01 -7.08154519641864e-01 -6.73665220767346e-01  1.14142856904153e-03 -1.14356048942135e-03
 6.85000000000000e+09  1.10144673775185e-03 -1.14063726839107e-03 -7.19770085134111e-01 -6.61099490347011e-01 -7.19770085134111e-01 -6.61099490347011e-01  1.10144673775185e-03 -1.14063726839107e-03
 6.90000000000000e+09  1.06159945335516e-03 -1.13631750925266e-03 -7.31162953221729e-01 -6.48333734317809e-01 -7.31162953221729e-01 -6.48333734317809e-01  1.06159945335516e-03 -1.13631750925266e-03
 6.95000000000000e+09  1.02193545047206e-03 -1.13060703734022e-03 -7.42329681675664e-01 -6.35371892857182e-01 -7.42329681675664e-01 -6.35371892857182e-01  1.02193545047206e-03 -1.13060703734022e-03
 7.00000000000000e+09  9.82503221459766e-04 -1.12351337724535e-03 -7.53266897872345e-01 -6.22217965412623e-01 -7.53266897872345e-01 -6.22217965412623e-01  9.82503221459766e-04 -1.12351337724535e-03
 7.05000000000000e+09  9.43350957202537e-04 -1.11504574302420e-03 -7.63971299815790e-01 -6.08876009472360e-01 -7.63971299815790e-01 -6.08876009472360e-01  9.43350957202537e-04 -1.11504574302420e-03
 7.10000000000000e+09  9.04526488290668e-04 -1.10521502634279e-03 -7.74439657137985e-01 -5.95350139318428e-01 -7.74439657137985e-01 -5.95350139318428e-01  9.04526488290668e-04 -1.10521502634279e-03
 7.15000000000000e+09  8.66077226657877e-04 -1.09403378257473e-03 -7.84668812077211e-01 -5.81644524762490e-01 -7.84668812077211e-01 -5.81644524762490e-01  8.66077226657877e-04 -1.09403378257473e-03
 7.20000000000000e+09  8.28050107750515e-04 -1.08151621487033e-03 -7.94655680434042e-01 -5.67763389864809e-01 -7.94655680434042e-01 -5.67763389864809e-01  8.28050107750515e-04 -1.08151621487033e-03
 7.25000000000000e+09  7.90491533297424e-04 -1.06767815621583e-03 -8.04397252504706e-01 -5.53711011636756e-01 -8.04397252504706e-01 -5.53711011636756e-01  7.90491533297424e-04 -1.06767815621583e-03
 7.30000000000000e+09  7.53447314750723e-04 -1.05253704950639e-03 -8.13890593991555e-01 -5.39491718727258e-01 -8.13890593991555e-01 -5.39491718727258e-01  7.53447314750723e-04 -1.05253704950639e-03
 7.35000000000000e+09  7.16962617467291e-04 -1.03611192565731e-03 -8.23132846890326e-01 -5.25109890093589e-01 -8.23132846890326e-01 -5.25109890093589e-01  7.16962617467291e-04 -1.03611192565731e-03
 7.40000000000000e+09  6.81081905697202e-04 -1.01842337978007e-03 -8.32121230353973e-01 -5.10569953656916e-01 -8.32121230353973e-01 -5.10569953656916e-01  6.81081905697202e-04 -1.01842337978007e-03
 7.45000000000000e+09  6.45848888448080e-04 -9.99493545454903e-04 -8.40853041532762e-01 -4.95876384943003e-01 -8.40853041532762e-01 -4.95876384943003e-01  6.45848888448080e-04 -9.99493545454903e-04
 7.50000000000000e+09  6.11306466289855e-04 -9.79346067129915e-04 -8.49325656390416e-01 -4.81033705708503e-01 -8.49325656390416e-01 -4.81033705708503e-01  6.11306466289855e-04 -9.79346067129915e-04
 7.55000000000000e+09  5.77496679165434e-04 -9.58006070682031e-04 -8.57536530496029e-01 -4.66046482553255e-01 -8.57536530496029e-01 -4.66046482553255e-01  5.77496679165434e-04 -9.58006070682031e-04
 7.60000000000000e+09  5.44460655270142e-04 -9.35500132176276e-04 -8.65483199791528e-01 -4.50919325519009e-01 -8.65483199791528e-01 -4.50919325519009e-01  5.44460655270142e-04 -9.35500132176276e-04
 7.65000000000000e+09  5.12238561063348e-04 -9.11856244861860e-04 -8.73163281334459e-01 -4.35656886675018e-01 -8.73163281334459e-01 -4.35656886675018e-01  5.12238561063348e-04 -9.11856244861860e-04
 7.70000000000000e+09  4.80869552470921e-04 -8.87103784446222e-04 -8.80574474015841e-01 -4.20263858690921e-01 -8.80574474015841e-01 -4.20263858690921e-01  4.80869552470921e-04 -8.87103784446222e-04
 7.75000000000000e+09  4.50391727340554e-04 -8.61273472689926e-04 -8.87714559252905e-01 -4.04744973397367e-01 -8.87714559252905e-01 -4.04744973397367e-01  4.50391727340554e-04 -8.61273472689926e-04
 7.80000000000000e+09  4.20842079205126e-04 -8.34397339367209e-04 -8.94581401656492e-01 -3.89105000334816e-01 -8.94581401656492e-01 -3.89105000334816e-01  4.20842079205126e-04 -8.34397339367209e-04
 7.85000000000000e+09  3.92256452411831e-04 -8.06508682639627e-04 -9.01172949672905e-01 -3.73348745290958e-01 -9.01172949672905e-01 -3.73348745290958e-01  3.92256452411831e-04 -8.06508682639627e-04
 7.90000000000000e+09  3.64669498671152e-04 -7.77642027891367e-04 -9.07487236200035e-01 -3.57481048827216e-01 -9.07487236200035e-01 -3.57481048827216e-01  3.64669498671152e-04 -7.77642027891367e-04
 7.95000000000000e+09  3.38114635078066e-04 -7.47833085077113e-04 -9.13522379177566e-01 -3.41506784794761e-01 -9.13522379177566e-01 -3.41506784794761e-01  3.38114635078066e-04 -7.47833085077113e-04
 8.00000000000000e+09  3.12624003656681e-04 -7.17118704635267e-04 -9.19276582151078e-01 -3.25430858840523e-01 -9.19276582151078e-01 -3.25430858840523e-01  3.12624003656681e-04 -7.17118704635267e-04
 8.05000000000000e+09  2.88228432477030e-04 -6.85536832020360e-04 -9.24748134809887e-01 -3.09258206903632e-01 -9.24748134809887e-01 -3.09258206903632e-01  2.88228432477030e-04 -6.85536832020360e-04
 8.10000000000000e+09  2.64957398391901e-04 -6.53126460911743e-04 -9.29935413498457e-01 -2.92993793702765e-01 -9.29935413498457e-01 -2.92993793702765e-01  2.64957398391901e-04 -6.53126460911743e-04
 8.15000000000000e+09  2.42838991437027e-04 -6.19927585154403e-04 -9.34836881701230e-01 -2.76642611214866e-01 -9.34836881701230e-01 -2.76642611214866e-01  2.42838991437027e-04 -6.19927585154403e-04
 8.20000000000000e+09  2.21899880940009e-04 -5.85981149493184e-04 -9.39451090500723e-01 -2.60209677145691e-01 -9.39451090500723e-01 -2.60209677145691e-01  2.21899880940009e-04 -5.85981149493184e-04
 8.25000000000000e+09  2.02165283376795e-04 -5.51328999159248e-04 -9.43776679008764e-01 -2.43700033392661e-01 -9.43776679008764e-01 -2.43700033392661e-01  2.02165283376795e-04 -5.51328999159248e-04
 8.30000000000000e+09  1.83658932015669e-04 -5.16013828371793e-04 -9.47812374770739e-01 -2.27118744500495e-01 -9.47812374770739e-01 -2.27118744500495e-01  1.83658932015669e-04 -5.16013828371793e-04
 8.35000000000000e+09  1.66403048385063e-04 -4.80079127817805e-04 -9.51556994142709e-01 -2.10470896110094e-01 -9.51556994142709e-01 -2.10470896110094e-01  1.66403048385063e-04 -4.80079127817805e-04
 8.40000000000000e+09  1.50418315599404e-04 -4.43569131174936e-04 -9.55009442641317e-01 -1.93761593401139e-01 -9.55009442641317e-01 -1.93761593401139e-01  1.50418315599404e-04 -4.43569131174936e-04
 8.45000000000000e+09  1.35723853575263e-04 -4.06528760742574e-04 -9.58168715266355e-01 -1.76995959528917e-01 -9.58168715266355e-01 -1.76995959528917e-01  1.35723853575263e-04 -4.06528760742574e-04
 8.50000000000000e+09  1.22337196167018e-04 -3.69003572248215e-04 -9.61033896795901e-01 -1.60179134055809e-01 -9.61033896795901e-01 -1.60179134055809e-01  1.22337196167018e-04 -3.69003572248215e-04
 8.55000000000000e+09  1.10274270250348e-04 -3.31039698897040e-04 -9.63604162053950e-01 -1.43316271377963e-01 -9.63604162053950e-01 -1.43316271377963e-01  1.10274270250348e-04 -3.31039698897040e-04
 8.60000000000000e+09  9.95493767776739e-05 -2.92683794732819e-04 -9.65878776150447e-01 -1.26412539147606e-01 -9.65878776150447e-01 -1.26412539147606e-01  9.95493767776739e-05 -2.92683794732819e-04
 8.65000000000000e+09  9.01751738283551e-05 -2.53982977380194e-04 -9.67857094693659e-01 -1.09473116691492e-01 -9.67857094693659e-01 -1.09473116691492e-01  9.01751738283551e-05 -2.53982977380194e-04
 8.70000000000000e+09  8.21626616740571e-05 -2.14984770238280e-04 -9.69538563974822e-01 -9.25031934259750e-02 -9.69538563974822e-01 -9.25031934259750e-02  8.21626616740571e-05 -2.14984770238280e-04
 8.75000000000000e+09  7.55211698766067e-05 -1.75737044196424e-04 -9.70922721125009e-01 -7.55079672691827e-02 -9.70922721125009e-01 -7.55079672691827e-02  7.55211698766067e-05 -1.75737044196424e-04
 8.80000000000000e+09  7.02583464337632e-05 -1.36287958943584e-04 -9.72009194244175e-01 -5.84926430507822e-02 -9.72009194244175e-01 -5.84926430507822e-02  7.02583464337632e-05 -1.36287958943584e-04
 8.85000000000000e+09  6.63801489849579e-05 -9.66859039434390e-05 -9.72797702502351e-01 -4.14624309198338e-02 -9.72797702502351e-01 -4.14624309198338e-02  6.63801489849579e-05 -9.66859039434390e-05
 8.90000000000000e+09  6.38908380883269e-05 -5.69794391471319e-05 -9.73288056212938e-01 -2.44225447512079e-02 -9.73288056212938e-01 -2.44225447512079e-02  6.38908380883269e-05 -5.69794391471319e-05
 8.95000000000000e+09  6.27929725748572e-05 -1.72172355166363e-05 -9.73480156878110e-01 -7.37820055106605e-03 -9.73480156878110e-01 -7.37820055106605e-03  6.27929725748572e-05 -1.72172355166363e-05
 9.00000000000000e+09  6.30874069870914e-05  2.25519845687522e-05 -9.73373997206293e-01  9.66538513811659e-03 -9.73373997206293e-01  9.66538513811659e-03  6.30874069870914e-05  2.25519845687522e-05
 9.05000000000000e+09  6.47732911019070e-05  6.22795069496368e-05 -9.72969661101731e-01  2.67029968324836e-02 -9.72969661101731e-01  2.67029968324836e-02  6.47732911019070e-05  6.22795069496368e-05
 9.10000000000000e+09  6.78480715402129e-05  1.01916685294687e-04 -9.72267323626142e-01  4.37294217012105e-02 -9.72267323626142e-01  4.37294217012105e-02  6.78480715402129e-05  1.01916685294687e-04
 9.15000000000000e+09  7.23074954589943e-05  1.41415000606728e-04 -9.71267250932476e-01  6.07394511599004e-02 -9.71267250932476e-01  6.07394511599004e-02  7.23074954589943e-05  1.41415000606728e-04
 9.20000000000000e+09  7.81456163215066e-05  1.80726120554033e-04 -9.69969800170806e-01  7.77278824624740e-02 -9.69969800170806e-01  7.77278824624740e-02  7.81456163215066e-05  1.80726120554033e-04
 9.25000000000000e+09  8.53548017371482e-05  2.19801958554323e-04 -9.68375419366383e-01  9.46895202910726e-02 -9.68375419366383e-01  9.46895202910726e-02  8.53548017371482e-05  2.19801958554323e-04
 9.30000000000000e+09  9.39257433624401e-05  2.58594732539182e-04 -9.66484647269887e-01  1.11619178343475e-01 -9.66484647269887e-01  1.11619178343475e-01  9.39257433624401e-05  2.58594732539182e-04
 9.35000000000000e+09  1.03847468847389e-04  2.97057023327302e-04 -9.64298113179938e-01  1.28511680917558e-01 -9.64298113179938e-01  1.28511680917558e-01  1.03847468847389e-04  2.97057023327302e-04
 9.40000000000000e+09  1.15107355815531e-04  3.35141832535103e-04 -9.61816536737918e-01  1.45361864492299e-01 -9.61816536737918e-01  1.45361864492299e-01  1.15107355815531e-04  3.35141832535103e-04
 9.45000000000000e+09  1.27691147857401e-04  3.72802639953881e-04 -9.59040727695165e-01  1.62164579304844e-01 -9.59040727695165e-01  1.62164579304844e-01  1.27691147857401e-04  3.72802639953881e-04
 9.50000000000000e+09  1.41582972518202e-04  4.09993460323951e-04 -9.55971585652631e-01  1.78914690923163e-01 -9.55971585652631e-01  1.78914690923163e-01  1.41582972518202e-04  4.09993460323951e-04
 9.55000000000000e+09  1.56765361256596e-04  4.46668899436085e-04 -9.52610099773064e-01  1.95607081813799e-01 -9.52610099773064e-01  1.95607081813799e-01  1.56765361256596e-04  4.46668899436085e-04
 9.60000000000000e+09  1.73219271350746e-04  4.82784209491922e-04 -9.48957348465835e-01  2.12236652904239e-01 -9.48957348465835e-01  2.12236652904239e-01  1.73219271350746e-04  4.82784209491922e-04
 9.65000000000000e+09  1.90924109722245e-04  5.18295343655864e-04 -9.45014499044481e-01  2.28798325139431e-01 -9.45014499044481e-01  2.28798325139431e-01  1.90924109722245e-04  5.18295343655864e-04
 9.70000000000000e+09  2.09857758650677e-04  5.53159009732204e-04 -9.40782807357096e-01  2.45287041031960e-01 -9.40782807357096e-01  2.45287041031960e-01  2.09857758650677e-04  5.53159009732204e-04
 9.75000000000000e+09  2.29996603344179e-04  5.87332722901607e-04 -9.36263617389676e-01  2.61697766205418e-01 -9.36263617389676e-01  2.61697766205418e-01  2.29996603344179e-04  5.87332722901607e-04
 9.80000000000000e+09  2.51315561333714e-04  6.20774857453095e-04 -9.31458360842545e-01  2.78025490930495e-01 -9.31458360842545e-01  2.78025490930495e-01  2.51315561333714e-04  6.20774857453095e-04
 9.85000000000000e+09  2.73788113653812e-04  6.53444697448599e-04 -9.26368556679999e-01  2.94265231653315e-01 -9.26368556679999e-01  2.94265231653315e-01  2.73788113653812e-04  6.53444697448599e-04
 9.90000000000000e+09  2.97386337770586e-04  6.85302486257991e-04 -9.20995810653307e-01  3.10412032515559e-01 -9.20995810653307e-01  3.10412032515559e-01  2.97386337770586e-04  6.85302486257991e-04
 9.95000000000000e+09  3.22080942217035e-04  7.16309474905022e-04 -9.15341814797224e-01  3.26460966865896e-01 -9.15341814797224e-01  3.26460966865896e-01  3.22080942217035e-04  7.16309474905022e-04
 1.00000000000000e+10  3.47841302892550e-04  7.46427969164405e-04 -9.09408346900162e-01  3.42407138762285e-01 -9.09408346900162e-01  3.42407138762285e-01  3.47841302892550e-04  7.46427969164405e-04
 1.00500000000000e+10  3.74635500981152e-04  7.75621375354132e-04 -9.03197269948205e-01  3.58245684464652e-01 -9.03197269948205e-01  3.58245684464652e-01  3.74635500981152e-04  7.75621375354132e-04
 1.01000000000000e+10  4.02430362442025e-04  8.03854244765895e-04 -8.96710531543126e-01  3.73971773917526e-01 -8.96710531543126e-01  3.73971773917526e-01  4.02430362442025e-04  8.03854244765895e-04
 1.01500000000000e+10  4.31191499024044e-04  8.31092316681193e-04 -8.89950163294596e-01  3.89580612222152e-01 -8.89950163294596e-01  3.89580612222152e-01  4.31191499024044e-04  8.31092316681193e-04
 1.02000000000000e+10  4.60883350752211e-04  8.57302559919443e-04 -8.82918280186772e-01  4.05067441097643e-01 -8.82918280186772e-01  4.05067441097643e-01  4.60883350752211e-04  8.57302559919443e-04
 1.02500000000000e+10  4.91469229835471e-04  8.82453212868813e-04 -8.75617079919468e-01  4.20427540330730e-01 -8.75617079919468e-01  4.20427540330730e-01  4.91469229835471e-04  8.82453212868813e-04
 1.03000000000000e+10  5.22911365939594e-04  9.06513821951269e-04 -8.68048842224103e-01  4.35656229213649e-01 -8.68048842224103e-01  4.35656229213649e-01  5.22911365939594e-04  9.06513821951269e-04
 1.03500000000000e+10  5.55170952771808e-04  9.29455278473981e-04 -8.60215928154660e-01  4.50748867969755e-01 -8.60215928154660e-01  4.50748867969755e-01  5.55170952771808e-04  9.29455278473981e-04
 1.04000000000000e+10  5.88208195917092e-04  9.51249853824263e-04 -8.52120779353851e-01  4.65700859166393e-01 -8.52120779353851e-01  4.65700859166393e-01  5.88208195917092e-04  9.51249853824263e-04
 1.04500000000000e+10  6.21982361869740e-04  9.71871232963877e-04 -8.43765917294740e-01  4.80507649114638e-01 -8.43765917294740e-01  4.80507649114638e-01  6.21982361869740e-04  9.71871232963877e-04
 1.05000000000000e+10  6.56451828198048e-04  9.91294546183885e-04 -8.35153942498046e-01  4.95164729255427e-01 -8.35153942498046e-01  4.95164729255427e-01  6.56451828198048e-04  9.91294546183885e-04
 1.05500000000000e+10  6.91574134780697e-04  1.00949639907961e-03 -8.26287533725382e-01  5.09667637531711e-01 -8.26287533725382e-01  5.09667637531711e-01  6.91574134780697e-04  1.00949639907961e-03
 1.06000000000000e+10  7.27306036053427e-04  1.02645490071220e-03 -8.17169447148660e-01  5.24011959746167e-01 -8.17169447148660e-01  5.24011959746167e-01  7.27306036053427e-04  1.02645490071220e-03
 1.06500000000000e+10  7.63603554199199e-04  1.04214968992045e-03 -8.07802515495948e-01  5.38193330904091e-01 -8.07802515495948e-01  5.38193330904091e-01  7.63603554199199e-04  1.04214968992045e-03
 1.07000000000000e+10  8.00422033218241e-04  1.05656195975248e-03 -7.98189647174027e-01  5.52207436541033e-01 -7.98189647174027e-01  5.52207436541033e-01  8.00422033218241e-04  1.05656195975248e-03
 1.07500000000000e+10  8.37716193811192e-04  1.06967447998806e-03 -7.88333825367917e-01  5.66050014034796e-01 -7.88333825367917e-01  5.66050014034796e-01  8.37716193811192e-04  1.06967447998806e-03
 1.08000000000000e+10  8.75440189007918e-04  1.08147161772424e-03 -7.78238107117668e-01  5.79716853901377e-01 -7.78238107117668e-01  5.79716853901377e-01  8.75440189007918e-04  1.08147161772424e-03
 1.08500000000000e+10  9.13547660473342e-04  1.09193935599952e-03 -7.67905622372687e-01  5.93203801074478e-01 -7.67905622372687e-01  5.93203801074478e-01  9.13547660473342e-04  1.09193935599952e-03
 1.09000000000000e+10  9.51991795421517e-04  1.10106531043486e-03 -7.57339573023905e-01  6.06506756168180e-01 -7.57339573023905e-01  6.06506756168180e-01  9.51991795421517e-04  1.10106531043486e-03
 1.09500000000000e+10  9.90725384068240e-04  1.10883874387120e-03 -7.46543231914074e-01  6.19621676722409e-01 -7.46543231914074e-01  6.19621676722409e-01  9.90725384068240e-04  1.10883874387120e-03
 1.10000000000000e+10  1.02970087755177e-03  1.11525057898695e-03 -7.35519941826514e-01  6.32544578430803e-01 -7.35519941826514e-01  6.32544578430803e-01  1.02970087755177e-03  1.11525057898695e-03
 1.10500000000000e+10  1.06887044624976e-03  1.12029340887980e-03 -7.24273114452606e-01  6.45271536350622e-01 -7.24273114452606e-01  6.45271536350622e-01  1.06887044624976e-03  1.12029340887980e-03
 1.11000000000000e+10  1.10818603842231e-03  1.12396150560118e-03 -7.12806229338368e-01  6.57798686094326e-01 -7.12806229338368e-01  6.57798686094326e-01  1.10818603842231e-03  1.12396150560118e-03
 1.11500000000000e+10  1.14759943910834e-03  1.12625082663288e-03 -7.01122832810425e-01  6.70122225002452e-01 -7.01122832810425e-01  6.70122225002452e-01  1.14759943910834e-03  1.12625082663288e-03
 1.12000000000000e+10  1.18706232920355e-03  1.12715901929968e-03 -6.89226536881718e-01  6.82238413297452e-01 -6.89226536881718e-01  6.82238413297452e-01  1.18706232920355e-03  1.12715901929968e-03
 1.12500000000000e+10  1.22652634464704e-03  1.12668542311142e-03 -6.77121018137282e-01  6.94143575218127e-01 -6.77121018137282e-01  6.94143575218127e-01  1.22652634464704e-03  1.12668542311142e-03
 1.13000000000000e+10  1.26594313564486e-03  1.12483107003422e-03 -6.64810016600434e-01  7.05834100134320e-01 -6.64810016600434e-01  7.05834100134320e-01  1.26594313564486e-03  1.12483107003422e-03
 1.13500000000000e+10  1.30526442585805e-03  1.12159868268965e-03 -6.52297334579734e-01  7.17306443641530e-01 -6.52297334579734e-01  7.17306443641530e-01  1.30526442585805e-03  1.12159868268965e-03
 1.14000000000000e+10  1.34444207148192e-03  1.11699267048596e-03 -6.39586835497064e-01  7.28557128635118e-01 -6.39586835497064e-01  7.28557128635118e-01  1.34444207148192e-03  1.11699267048596e-03
 1.14500000000000e+10  1.38342812014476e-03  1.11101912368487e-03 -6.26682442697195e-01  7.39582746363768e-01 -6.26682442697195e-01  7.39582746363768e-01  1.38342812014476e-03  1.11101912368487e-03
 1.15000000000000e+10  1.42217486955486e-03  1.10368580541455e-03 -6.13588138239190e-01  7.50379957461901e-01 -6.13588138239190e-01  7.50379957461901e-01  1.42217486955486e-03  1.10368580541455e-03
 1.15500000000000e+10  1.46063492582204e-03  1.09500214163597e-03 -6.00307961670048e-01  7.60945492960724e-01 -6.00307961670048e-01  7.60945492960724e-01  1.46063492582204e-03  1.09500214163597e-03
 1.16000000000000e+10  1.49876126138482e-03  1.08497920907837e-03 -5.86846008780937e-01  7.71276155277598e-01 -5.86846008780937e-01  7.71276155277598e-01  1.49876126138482e-03  1.08497920907837e-03
 1.16500000000000e+10  1.53650727247067e-03  1.07362972115754e-03 -5.73206430346416e-01  7.81368819183444e-01 -5.73206430346416e-01  7.81368819183444e-01  1.53650727247067e-03  1.07362972115754e-03
 1.17000000000000e+10  1.57382683602050e-03  1.06096801189525e-03 -5.59393430847027e-01  7.91220432747880e-01 -5.59393430847027e-01  7.91220432747880e-01  1.57382683602050e-03  1.06096801189525e-03
 1.17500000000000e+10  1.61067436600630e-03  1.04701001786020e-03 -5.45411267175653e-01  8.00828018261812e-01 -5.45411267175653e-01  8.00828018261812e-01  1.61067436600630e-03  1.04701001786020e-03
 1.18000000000000e+10  1.64700486907506e-03  1.03177325815272e-03 -5.31264247328038e-01  8.10188673137204e-01 -5.31264247328038e-01  8.10188673137204e-01  1.64700486907506e-03  1.03177325815272e-03
 1.18500000000000e+10  1.68277399944959e-03  1.01527681245897e-03 -5.16956729077883e-01  8.19299570783738e-01 -5.16956729077883e-01  8.19299570783738e-01  1.68277399944959e-03  1.01527681245897e-03
 1.19000000000000e+10  1.71793811301990e-03  9.97541297201882e-04 -5.02493118636898e-01  8.28157961462125e-01 -5.02493118636898e-01  8.28157961462125e-01  1.71793811301990e-03  9.97541297201882e-04
 1.19500000000000e+10  1.75245432055988e-03  9.78588839818149e-04 -4.87877869300256e-01  8.36761173113798e-01 -4.87877869300256e-01  8.36761173113798e-01  1.75245432055988e-03  9.78588839818149e-04
 1.20000000000000e+10  1.78628054000255e-03  9.58443051193766e-04 -4.73115480077845e-01  8.45106612166720e-01 -4.73115480077845e-01  8.45106612166720e-01  1.78628054000255e-03  9.58443051193766e-04
 1.20500000000000e+10  1.81937554771205e-03  9.37128996291991e-04 -4.58210494311735e-01  8.53191764317108e-01 -4.58210494311735e-01  8.53191764317108e-01  1.81937554771205e-03  9.37128996291991e-04
 1.21000000000000e+10  1.85169902868924e-03  9.14673163011237e-04 -4.43167498280305e-01  8.61014195286791e-01 -4.43167498280305e-01  8.61014195286791e-01  1.85169902868924e-03  9.14673163011237e-04
 1.21500000000000e+10  1.88321162564917e-03  8.91103429309781e-04 -4.27991119789432e-01  8.68571551556008e-01 -4.27991119789432e-01  8.68571551556008e-01  1.88321162564917e-03  8.91103429309781e-04
 1.22000000000000e+10  1.91387498691208e-03  8.66449028639683e-04 -4.12686026751201e-01  8.75861561071406e-01 -4.12686026751201e-01  8.75861561071406e-01  1.91387498691208e-03  8.66449028639683e-04
 1.22500000000000e+10  1.94365181304871e-03  8.40740513732146e-04 -3.97256925750550e-01  8.82882033929042e-01 -3.97256925750550e-01  8.82882033929042e-01  1.94365181304871e-03  8.40740513732146e-04
 1.23000000000000e+10  1.97250590222244e-03  8.14009718778490e-04 -3.81708560600301e-01  8.89630863032171e-01 -3.81708560600301e-01  8.89630863032171e-01  1.97250590222244e-03  8.14009718778490e-04
 1.23500000000000e+10  2.00040219417585e-03  7.86289720054476e-04 -3.66045710885023e-01  8.96106024723630e-01 -3.66045710885023e-01  8.96106024723630e-01  2.00040219417585e-03  7.86289720054476e-04
 1.24000000000000e+10  2.02730681280479e-03  7.57614795036306e-04 -3.50273190494162e-01  9.02305579392628e-01 -3.50273190494162e-01  9.02305579392628e-01  2.02730681280479e-03  7.57614795036306e-04
 1.24500000000000e+10  2.05318710727128e-03  7.28020380058231e-04 -3.34395846144897e-01  9.08227672055757e-01 -3.34395846144897e-01  9.08227672055757e-01  2.05318710727128e-03  7.28020380058231e-04
 1.25000000000000e+10  2.07801169160372e-03  6.97543026565063e-04 -3.18418555895171e-01  9.13870532912063e-01 -3.18418555895171e-01  9.13870532912063e-01  2.07801169160372e-03  6.97543026565063e-04
 1.25500000000000e+10  2.10175048273649e-03  6.66220356012312e-04 -3.02346227647354e-01  9.19232477871990e-01 -3.02346227647354e-01  9.19232477871990e-01  2.10175048273649e-03  6.66220356012312e-04
 1.26000000000000e+10  2.12437473694336e-03  6.34091013470763e-04 -2.86183797642994e-01  9.24311909060061e-01 -2.86183797642994e-01  9.24311909060061e-01  2.12437473694336e-03  6.34091013470763e-04
 1.26500000000000e+10  2.14585708462119e-03  6.01194619991862e-04 -2.69936228949116e-01  9.29107315291139e-01 -2.69936228949116e-01  9.29107315291139e-01  2.14585708462119e-03  6.01194619991862e-04
 1.27000000000000e+10  2.16617156337903e-03  5.67571723792373e-04 -2.53608509936540e-01  9.33617272520115e-01 -2.53608509936540e-01  9.33617272520115e-01  2.16617156337903e-03  5.67571723792373e-04
 1.27500000000000e+10  2.18529364939720e-03  5.33263750319697e-04 -2.37205652750676e-01  9.37840444264911e-01 -2.37205652750676e-01  9.37840444264911e-01  2.18529364939720e-03  5.33263750319697e-04
 1.28000000000000e+10  2.20320028701399e-03  4.98312951257513e-04 -2.20732691775259e-01  9.41775582002660e-01 -2.20732691775259e-01  9.41775582002660e-01  2.20320028701399e-03  4.98312951257513e-04
 1.28500000000000e+10  2.21986991650706e-03  4.62762352535896e-04 -2.04194682089511e-01  9.45421525538941e-01 -2.04194682089511e-01  9.45421525538941e-01  2.21986991650706e-03  4.62762352535896e-04
 1.29000000000000e+10  2.23528250003513e-03  4.26655701409139e-04 -1.87596697919187e-01  9.48777203349975e-01 -1.87596697919187e-01  9.48777203349975e-01  2.23528250003513e-03  4.26655701409139e-04
 1.29500000000000e+10  2.24941954570863e-03  3.90037412666301e-04 -1.70943831081982e-01  9.51841632897674e-01 -1.70943831081982e-01  9.51841632897674e-01  2.24941954570863e-03  3.90037412666301e-04
 1.30000000000000e+10  2.26226412976136e-03  3.52952514041050e-04 -1.54241189427775e-01  9.54613920917443e-01 -1.54241189427775e-01  9.54613920917443e-01  2.26226412976136e-03  3.52952514041050e-04
 1.30500000000000e+10  2.27380091679459e-03  3.15446590887151e-04 -1.37493895274191e-01  9.57093263678668e-01 -1.37493895274191e-01  9.57093263678668e-01  2.27380091679459e-03  3.15446590887151e-04
 1.31000000000000e+10  2.28401617807254e-03  2.77565730188347e-04 -1.20707083837951e-01  9.59278947217798e-01 -1.20707083837951e-01  9.59278947217798e-01  2.28401617807254e-03  2.77565730188347e-04
 1.31500000000000e+10  2.29289780784308e-03  2.39356463970424e-04 -1.03885901662497e-01  9.61170347543968e-01 -1.03885901662497e-01  9.61170347543968e-01  2.29289780784308e-03  2.39356463970424e-04
 1.32000000000000e+10  2.30043533766920e-03  2.00865712185665e-04 -8.70355050423619e-02  9.62766930817089e-01 -8.70355050423619e-02  9.62766930817089e-01  2.30043533766920e-03  2.00865712185665e-04
 1.32500000000000e+10  2.30661994875035e-03  1.62140725139408e-04 -7.01610584447801e-02  9.64068253498365e-01 -7.01610584447801e-02  9.64068253498365e-01  2.30661994875035e-03  1.62140725139408e-04
 1.33000000000000e+10  2.31144448222070e-03  1.23229025529288e-04 -5.32677329290093e-02  9.65073962473197e-01 -5.32677329290093e-02  9.65073962473197e-01  2.31144448222070e-03  1.23229025529288e-04
 1.33500000000000e+10  2.31490344741285e-03  8.41783501682578e-05 -3.63607045638456e-02  9.65783795146430e-01 -3.63607045638456e-02  9.65783795146430e-01  2.31490344741285e-03  8.41783501682578e-05
 1.34000000000000e+10  2.31699302807648e-03  4.50365914628938e-05 -1.94451528438255e-02  9.66197579509923e-01 -1.94451528438255e-02  9.66197579509923e-01  2.31699302807648e-03  4.50365914628938e-05
 1.34500000000000e+10  2.31771108654489e-03  5.85173871853550e-06 -2.52625910458766e-03  9.66315234182425e-01 -2.52625910458766e-03  9.66315234182425e-01  2.31771108654489e-03  5.85173871853550e-06
 1.35000000000000e+10  2.31705716584654e-03 -3.33281806567627e-05  1.43907950621184e-02  9.66136768421754e-01  1.43907950621184e-02  9.66136768421754e-01  2.31705716584654e-03 -3.33281806567627e-05
 1.35500000000000e+10  2.31503248975645e-03 -7.24551599774948e-05  3.13008293932889e-02  9.65662282109263e-01  3.13008293932889e-02  9.65662282109263e-01  2.31503248975645e-03 -7.24551599774948e-05
 1.36000000000000e+10  2.31163996079245e-03 -1.11481272063208e-04  4.81986665389129e-02  9.64891965706620e-01  4.81986665389129e-02  9.64891965706620e-01  2.31163996079245e-03 -1.11481272063208e-04
 1.36500000000000e+10  2.30688415615379e-03 -1.50358727906242e-04  6.50791336451225e-02  9.63826100184904e-01  6.50791336451225e-02  9.63826100184904e-01  2.30688415615379e-03 -1.50358727906242e-04
 1.37000000000000e+10  2.30077132161414e-03 -1.89039935153068e-04  8.19370639357548e-02  9.62465056926055e-01  8.19370639357548e-02  9.62465056926055e-01  2.30077132161414e-03 -1.89039935153068e-04
 1.37500000000000e+10  2.29330936337000e-03 -2.27477556327452e-04  9.87672982918587e-02  9.60809297596693e-01  9.87672982918587e-02  9.60809297596693e-01  2.29330936337000e-03 -2.27477556327452e-04
 1.38000000000000e+10  2.28450783786222e-03 -2.65624566724699e-04  1.15564686828657e-01  9.58859373994370e-01  1.15564686828657e-01  9.58859373994370e-01  2.28450783786222e-03 -2.65624566724699e-04
 1.38500000000000e+10  2.27437793957671e-03 -3.03434311905551e-04  1.32324090469479e-01  9.56615927866290e-01  1.32324090469479e-01  9.56615927866290e-01  2.27437793957671e-03 -3.03434311905551e-04
 1.39000000000000e+10  2.26293248684615e-03 -3.40860564720225e-04  1.49040382516187e-01  9.54079690700557e-01  1.49040382516187e-01  9.54079690700557e-01  2.26293248684615e-03 -3.40860564720225e-04
 1.39500000000000e+10  2.25018590566616e-03 -3.77857581792354e-04  1.65708450215628e-01  9.51251483490026e-01  1.65708450215628e-01  9.51251483490026e-01  2.25018590566616e-03 -3.77857581792354e-04
 1.40000000000000e+10  2.23615421154830e-03 -4.14380159394110e-04  1.82323196321616e-01  9.48132216468822e-01  1.82323196321616e-01  9.48132216468822e-01  2.23615421154830e-03 -4.14380159394110e-04
 1.40500000000000e+10  2.22085498943276e-03 -4.50383688644297e-04  1.98879540651971e-01  9.44722888821619e-01  1.98879540651971e-01  9.44722888821619e-01  2.22085498943276e-03 -4.50383688644297e-04
 1.41000000000000e+10  2.20430737168436e-03 -4.85824209961966e-04  2.15372421640166e-01  9.41024588365762e-01  2.15372421640166e-01  9.41024588365762e-01  2.20430737168436e-03 -4.85824209961966e-04
 1.41500000000000e+10  2.18653201420158e-03 -5.20658466709021e-04  2.31796797881068e-01  9.37038491206342e-01  2.31796797881068e-01  9.37038491206342e-01  2.18653201420158e-03 -5.20658466709021e-04
 1.42000000000000e+10  2.16755107066681e-03 -5.54843957956847e-04  2.48147649670331e-01  9.32765861364324e-01  2.48147649670331e-01  9.32765861364324e-01  2.16755107066681e-03 -5.54843957956847e-04
 1.42500000000000e+10  2.14738816496956e-03 -5.88338990311756e-04  2.64419980536967e-01  9.28208050377848e-01  2.64419980536967e-01  9.28208050377848e-01  2.14738816496956e-03 -5.88338990311756e-04
 1.43000000000000e+10  2.12606836183924e-03 -6.21102728737182e-04  2.80608818768620e-01  9.23366496876825e-01  2.80608818768620e-01  9.23366496876825e-01  2.12606836183924e-03 -6.21102728737182e-04
 1.43500000000000e+10  2.10361813572069e-03 -6.53095246309840e-04  2.96709218929085e-01  9.18242726130967e-01  2.96709218929085e-01  9.18242726130967e-01  2.10361813572069e-03 -6.53095246309840e-04
 1.44000000000000e+10  2.08006533793352e-03 -6.84277572849171e-04  3.12716263367603e-01  9.12838349571381e-01  3.12716263367603e-01  9.12838349571381e-01  2.08006533793352e-03 -6.84277572849171e-04
 1.44500000000000e+10  2.05543916215560e-03 -7.14611742362292e-04  3.28625063719487e-01  9.07155064285886e-01  3.28625063719487e-01  9.07155064285886e-01  2.05543916215560e-03 -7.14611742362292e-04
 1.45000000000000e+10  2.02977010827160e-03 -7.44060839244230e-04  3.44430762397598e-01  9.01194652488202e-01  3.44430762397598e-01  9.01194652488202e-01  2.02977010827160e-03 -7.44060839244230e-04
 1.45500000000000e+10  2.00308994463436e-03 -7.72589043179900e-04  3.60128534074242e-01  8.94958980961183e-01  3.60128534074242e-01  8.94958980961183e-01  2.00308994463436e-03 -7.72589043179900e-04
 1.46000000000000e+10  1.97543166878274e-03 -8.00161672691307e-04  3.75713587153013e-01  8.88450000474257e-01  3.75713587153013e-01  8.88450000474257e-01  1.97543166878274e-03 -8.00161672691307e-04
 1.46500000000000e+10  1.94682946666659e-03 -8.26745227277909e-04  3.91181165230158e-01  8.81669745175266e-01  3.91181165230158e-01  8.81669745175266e-01  1.94682946666659e-03 -8.26745227277909e-04
 1.47000000000000e+10  1.91731867042769e-03 -8.52307428098738e-04  4.06526548544991e-01  8.74620331956875e-01  4.06526548544991e-01  8.74620331956875e-01  1.91731867042769e-03 -8.52307428098738e-04
 1.47500000000000e+10  1.88693571479000e-03 -8.76817257146890e-04  4.21745055418944e-01  8.67303959797773e-01  4.21745055418944e-01  8.67303959797773e-01  1.88693571479000e-03 -8.76817257146890e-04
 1.48000000000000e+10  1.85571809211239e-03 -9.00244994869074e-04  4.36832043682788e-01  8.59722909078838e-01  4.36832043682788e-01  8.59722909078838e-01  1.85571809211239e-03 -9.00244994869074e-04
 1.48500000000000e+10  1.82370430615894e-03 -9.22562256184267e-04  4.51782912091610e-01  8.51879540874508e-01  4.51782912091610e-01  8.51879540874508e-01  1.82370430615894e-03 -9.22562256184267e-04
 1.49000000000000e+10  1.79093382464399e-03 -9.43742024857653e-04  4.66593101727108e-01  8.43776296219548e-01  4.66593101727108e-01  8.43776296219548e-01  1.79093382464399e-03 -9.43742024857653e-04
 1.49500000000000e+10  1.75744703061138e-03 -9.63758686189389e-04  4.81258097386774e-01  8.35415695351465e-01  4.81258097386774e-01  8.35415695351465e-01  1.75744703061138e-03 -9.63758686189389e-04
 1.50000000000000e+10  1.72328517270594e-03 -9.82588057976968e-04  4.95773428959543e-01  8.26800336928784e-01  4.95773428959543e-01  8.26800336928784e-01  1.72328517270594e-03 -9.82588057976968e-04
 1.50500000000000e+10  1.68849031439945e-03 -1.00020741971501e-03  5.10134672787489e-01  8.17932897225437e-01  5.10134672787489e-01  8.17932897225437e-01  1.68849031439945e-03 -1.00020741971501e-03
 1.51000000000000e+10  1.65310528223421e-03 -1.01659553999682e-03  5.24337453013163e-01  8.08816129301515e-01  5.24337453013163e-01  8.08816129301515e-01  1.65310528223421e-03 -1.01659553999682e-03
 1.51500000000000e+10  1.61717361314561e-03 -1.03173270208454e-03  5.38377442912140e-01  7.99452862150623e-01  5.38377442912140e-01  7.99452862150623e-01  1.61717361314561e-03 -1.03173270208454e-03
 1.52000000000000e+10  1.58073950093144e-03 -1.04560072761736e-03  5.52250366210396e-01  7.89845999824127e-01  5.52250366210396e-01  7.89845999824127e-01  1.58073950093144e-03 -1.04560072761736e-03
 1.52500000000000e+10  1.54384774193084e-03 -1.05818299842902e-03  5.65951998386093e-01  7.79998520532528e-01  5.65951998386093e-01  7.79998520532528e-01  1.54384774193084e-03 -1.05818299842902e-03
 1.53000000000000e+10  1.50654367998181e-03 -1.06946447644872e-03  5.79478167955380e-01  7.69913475724278e-01  5.79478167955380e-01  7.69913475724278e-01  1.50654367998181e-03 -1.06946447644872e-03
 1.53500000000000e+10  1.46887315072367e-03 -1.07943172166148e-03  5.92824757741831e-01  7.59593989142290e-01  5.92824757741831e-01  7.59593989142290e-01  1.46887315072367e-03 -1.07943172166148e-03
 1.54000000000000e+10  1.43088242531300e-03 -1.08807290810599e-03  6.05987706129114e-01  7.49043255858443e-01  6.05987706129114e-01  7.49043255858443e-01  1.43088242531300e-03 -1.08807290810599e-03
 1.54500000000000e+10  1.39261815362250e-03 -1.09537783789195e-03  6.18963008296523e-01  7.38264541286391e-01  6.18963008296523e-01  7.38264541286391e-01  1.39261815362250e-03 -1.09537783789195e-03
 1.55000000000000e+10  1.35412730699237e-03 -1.10133795321964e-03  6.31746717436993e-01  7.27261180172954e-01  6.31746717436993e-01  7.27261180172954e-01  1.35412730699237e-03 -1.10133795321964e-03
 1.55500000000000e+10  1.31545712060374e-03 -1.10594634638706e-03  6.44334945957228e-01  7.16036575568433e-01  6.44334945957228e-01  7.16036575568433e-01  1.31545712060374e-03 -1.10594634638706e-03
 1.56000000000000e+10  1.27665503554653e-03 -1.10919776777484e-03  6.56723866659564e-01  7.04594197776131e-01  6.56723866659564e-01  7.04594197776131e-01  1.27665503554653e-03 -1.10919776777484e-03
 1.56500000000000e+10  1.23776864064994e-03 -1.11108863179627e-03  6.68909713905236e-01  6.92937583281434e-01  6.68909713905236e-01  6.92937583281434e-01  1.23776864064994e-03 -1.11108863179627e-03
 1.57000000000000e+10  1.19884561414989e-03 -1.11161702081022e-03  6.80888784758660e-01  6.81070333660757e-01  6.80888784758660e-01  6.81070333660757e-01  1.19884561414989e-03 -1.11161702081022e-03
 1.57500000000000e+10  1.15993366526327e-03 -1.11078268698859e-03  6.92657440112405e-01  6.68996114470712e-01  6.92657440112405e-01  6.68996114470712e-01  1.15993366526327e-03 -1.11078268698859e-03
 1.58000000000000e+10  1.12108047573986e-03 -1.10858705213922e-03  7.04212105792509e-01  6.56718654117818e-01  7.04212105792509e-01  6.56718654117818e-01  1.12108047573986e-03 -1.10858705213922e-03
 1.58500000000000e+10  1.08233364146588e-03 -1.10503320548391e-03  7.15549273643792e-01  6.44241742709114e-01  7.15549273643792e-01  6.44241742709114e-01  1.08233364146588e-03 -1.10503320548391e-03
 1.59000000000000e+10  1.04374061418784e-03 -1.10012589939471e-03  7.26665502594844e-01  6.31569230884033e-01  7.26665502594844e-01  6.31569230884033e-01  1.04374061418784e-03 -1.10012589939471e-03
 1.59500000000000e+10  1.00534864343038e-03 -1.09387154309551e-03  7.37557419702366e-01  6.18705028627868e-01  7.37557419702366e-01  6.18705028627868e-01  1.00534864343038e-03 -1.09387154309551e-03
 1.60000000000000e+10  9.67204718677593e-04 -1.08627819433552e-03  7.48221721174537e-01  6.05653104067236e-01  7.48221721174537e-01  6.05653104067236e-01  9.67204718677593e-04 -1.08627819433552e-03
 1.60500000000000e+10  9.29355511889254e-04 -1.07735554904630e-03  7.58655173373104e-01  5.92417482247880e-01  7.58655173373104e-01  5.92417482247880e-01  9.29355511889254e-04 -1.07735554904630e-03
 1.61000000000000e+10  8.91847320422256e-04 -1.06711492899599e-03  7.68854613793883e-01  5.79002243895183e-01  7.68854613793883e-01  5.79002243895183e-01  8.91847320422256e-04 -1.06711492899599e-03
 1.61500000000000e+10  8.54726010426675e-04 -1.05556926745514e-03  7.78816952025384e-01  5.65411524157803e-01  7.78816952025384e-01  5.65411524157803e-01  8.54726010426675e-04 -1.05556926745514e-03
 1.62000000000000e+10  8.18036960786290e-04 -1.04273309289376e-03  7.88539170685244e-01  5.51649511334783e-01  7.88539170685244e-01  5.51649511334783e-01  8.18036960786290e-04 -1.04273309289376e-03
 1.62500000000000e+10  7.81825007670561e-04 -1.02862251072825e-03  7.98018326334224e-01  5.37720445586543e-01  7.98018326334224e-01  5.37720445586543e-01  7.81825007670561e-04 -1.02862251072825e-03
 1.63000000000000e+10  7.46134389768786e-04 -1.01325518314371e-03  8.07251550367438e-01  5.23628617630161e-01  8.07251550367438e-01  5.23628617630161e-01  7.46134389768786e-04 -1.01325518314371e-03
 1.63500000000000e+10  7.11008694268950e-04 -9.96650307013405e-04  8.16236049882602e-01  5.09378367419304e-01  8.16236049882602e-01  5.09378367419304e-01  7.11008694268950e-04 -9.96650307013405e-04
 1.64000000000000e+10  6.76490803651984e-04 -9.78828589946667e-04  8.24969108524986e-01  4.94974082809267e-01  8.24969108524986e-01  4.94974082809267e-01  6.76490803651984e-04 -9.78828589946667e-04
 1.64500000000000e+10  6.42622843362286e-04 -9.59812224491824e-04  8.33448087308846e-01  4.80420198207496e-01  8.33448087308846e-01  4.80420198207496e-01  6.42622843362286e-04 -9.59812224491824e-04
 1.65000000000000e+10  6.09446130420948e-04 -9.39624860528554e-04  8.41670425415078e-01  4.65721193210008e-01  8.41670425415078e-01  4.65721193210008e-01  6.09446130420948e-04 -9.39624860528554e-04
 1.65500000000000e+10  5.77001123043397e-04 -9.18291575883012e-04  8.49633640964842e-01  4.50881591224150e-01  8.49633640964842e-01  4.50881591224150e-01  5.77001123043397e-04 -9.18291575883012e-04
 1.66000000000000e+10  5.45327371323000e-04 -8.95838845201807e-04  8.57335331768929e-01  4.35905958078106e-01  8.57335331768929e-01  4.35905958078106e-01  5.45327371323000e-04 -8.95838845201807e-04
 1.66500000000000e+10  5.14463469039982e-04 -8.72294507124540e-04  8.64773176052657e-01  4.20798900617565e-01  8.64773176052657e-01  4.20798900617565e-01  5.14463469039982e-04 -8.72294507124540e-04
 1.67000000000000e+10  4.84447006656646e-04 -8.47687729794342e-04  8.71944933156040e-01  4.05565065290017e-01  8.71944933156040e-01  4.05565065290017e-01  4.84447006656646e-04 -8.47687729794342e-04
 1.67500000000000e+10  4.55314525552540e-04 -8.22048974750022e-04  8.78848444209058e-01  3.90209136717075e-01  8.78848444209058e-01  3.90209136717075e-01  4.55314525552540e-04 -8.22048974750022e-04
 1.68000000000000e+10  4.27101473559352e-04 -7.95409959244456e-04  8.85481632781790e-01  3.74735836255289e-01  8.85481632781790e-01  3.74735836255289e-01  4.27101473559352e-04 -7.95409959244456e-04
 1.68500000000000e+10  3.99842161845915e-04 -7.67803617034731e-04  8.91842505509244e-01  3.59149920545875e-01  8.91842505509244e-01  3.59149920545875e-01  3.99842161845915e-04 -7.67803617034731e-04
 1.69000000000000e+10  3.73569723208654e-04 -7.39264057694001e-04  8.97929152690666e-01  3.43456180053814e-01  8.97929152690666e-01  3.43456180053814e-01  3.73569723208654e-04 -7.39264057694001e-04
 1.69500000000000e+10  3.48316071816081e-04 -7.09826524494045e-04  9.03739748863159e-01  3.27659437596772e-01  9.03739748863159e-01  3.27659437596772e-01  3.48316071816081e-04 -7.09826524494045e-04
 1.70000000000000e+10  3.24111864457449e-04 -6.79527350911154e-04  9.09272553349450e-01  3.11764546864282e-01  9.09272553349450e-01  3.11764546864282e-01  3.24111864457449e-04 -6.79527350911154e-04
 1.70500000000000e+10  3.00986463342461e-04 -6.48403915808964e-04  9.14525910779619e-01  2.95776390927659e-01  9.14525910779619e-01  2.95776390927659e-01  3.00986463342461e-04 -6.48403915808964e-04
 1.71000000000000e+10  2.78967900496600e-04 -6.16494597353161e-04  9.19498251586640e-01  2.79699880741088e-01  9.19498251586640e-01  2.79699880741088e-01  2.78967900496600e-04 -6.16494597353161e-04
 1.71500000000000e+10  2.58082843796044e-04 -5.83838725714899e-04  9.24188092475598e-01  2.63539953634361e-01  9.24188092475598e-01  2.63539953634361e-01  2.58082843796044e-04 -5.83838725714899e-04
 1.72000000000000e+10  2.38356564682222e-04 -5.50476534621738e-04  9.28594036866413e-01  2.47301571797713e-01  9.28594036866413e-01  2.47301571797713e-01  2.38356564682222e-04 -5.50476534621738e-04
 1.72500000000000e+10  2.19812907596409e-04 -5.16449111814946e-04  9.32714775309970e-01  2.30989720759228e-01  9.32714775309970e-01  2.30989720759228e-01  2.19812907596409e-04 -5.16449111814946e-04
 1.73000000000000e+10  2.02474261170748e-04 -4.81798348474481e-04  9.36549085877500e-01  2.14609407855297e-01  9.36549085877500e-01  2.14609407855297e-01  2.02474261170748e-04 -4.81798348474481e-04
 1.73500000000000e+10  1.86361531209388e-04 -4.46566887674495e-04  9.40095834523121e-01  1.98165660694563e-01  9.40095834523121e-01  1.98165660694563e-01  1.86361531209388e-04 -4.46566887674495e-04
 1.74000000000000e+10  1.71494115495008e-04 -4.10798071931214e-04  9.43353975419411e-01  1.81663525615857e-01  9.43353975419411e-01  1.81663525615857e-01  1.71494115495008e-04 -4.10798071931214e-04
 1.74500000000000e+10  1.57889880447807e-04 -3.74535889909671e-04  9.46322551265922e-01  1.65108066140593e-01  9.46322551265922e-01  1.65108066140593e-01  1.57889880447807e-04 -3.74535889909671e-04
 1.75000000000000e+10  1.45565139668332e-04 -3.37824922352778e-04  9.49000693570547e-01  1.48504361420076e-01  9.49000693570547e-01  1.48504361420076e-01  1.45565139668332e-04 -3.37824922352778e-04
 1.75500000000000e+10  1.34534634386296e-04 -3.00710287301036e-04  9.51387622903644e-01  1.31857504678230e-01  9.51387622903644e-01  1.31857504678230e-01  1.34534634386296e-04 -3.00710287301036e-04
 1.76000000000000e+10  1.24811515843113e-04 -2.63237584668604e-04  9.53482649124856e-01  1.15172601650197e-01  9.53482649124856e-01  1.15172601650197e-01  1.24811515843113e-04 -2.63237584668604e-04
 1.76500000000000e+10  1.16407329624880e-04 -2.25452840244896e-04  9.55285171582549e-01  9.84547690173128e-02  9.55285171582549e-01  9.84547690173128e-02  1.16407329624880e-04 -2.25452840244896e-04
 1.77000000000000e+10  1.09332001967444e-04 -1.87402449189768e-04  9.56794679285820e-01  8.17091328389114e-02  9.56794679285820e-01  8.17091328389114e-02  1.09332001967444e-04 -1.87402449189768e-04
 1.77500000000000e+10  1.03593828048977e-04 -1.49133119091983e-04  9.58010751049016e-01  6.49408269814652e-02  9.58010751049016e-01  6.49408269814652e-02  1.03593828048977e-04 -1.49133119091983e-04
 1.78000000000000e+10  9.91994622828017e-05 -1.10691812660766e-04  9.58933055608729e-01  4.81549915455260e-02  9.58933055608729e-01  4.81549915455260e-02  9.91994622828017e-05 -1.10691812660766e-04
 1.78500000000000e+10  9.61539106236061e-05 -7.21256901205870e-05  9.59561351713229e-01  3.13567712909613e-02  9.59561351713229e-01  3.13567712909613e-02  9.61539106236061e-05 -7.21256901205870e-05
 1.79000000000000e+10  9.44605248945266e-05 -3.34820513799912e-05  9.59895488184322e-01  1.45513140609558e-02  9.59895488184322e-01  1.45513140609558e-02  9.44605248945266e-05 -3.34820513799912e-05
 1.79500000000000e+10  9.41209991421139e-05  5.19172195477092e-06  9.59935403951601e-01 -2.25623079472404e-03  9.59935403951601e-01 -2.25623079472404e-03  9.41209991421139e-05  5.19172195477092e-06
 1.80000000000000e+10  9.51353680230749e-05  4.38482246501061e-05  9.59681128059095e-01 -1.90607139967206e-02  9.59681128059095e-01 -1.90607139967206e-02  9.51353680230749e-05  4.38482246501061e-05
 1.80500000000000e+10  9.75020072236038e-05  8.24400859284601e-05  9.59132779644314e-01 -3.58569879128688e-02  9.59132779644314e-01 -3.58569879128688e-02  9.75020072236038e-05  8.24400859284601e-05
 1.81000000000000e+10  1.01217635911494e-04  1.20920027493401e-04  9.58290567889696e-01 -5.26399081342462e-02  9.58290567889696e-01 -5.26399081342462e-02  1.01217635911494e-04  1.20920027493401e-04
 1.81500000000000e+10  1.06277321216117e-04  1.59240921425473e-04  9.57154791946486e-01 -6.94043350500581e-02  9.57154791946486e-01 -6.94043350500581e-02  1.06277321216117e-04  1.59240921425473e-04
 1.82000000000000e+10  1.12674484731277e-04  1.97355847877898e-04  9.55725840831052e-01 -8.61451354208241e-02  9.55725840831052e-01 -8.61451354208241e-02  1.12674484731277e-04  1.97355847877898e-04
 1.82500000000000e+10  1.20400911031273e-04  2.35218152501501e-04  9.54004193293703e-01 -1.02857183949426e-01  9.54004193293703e-01 -1.02857183949426e-01  1.20400911031273e-04  2.35218152501501e-04
 1.83000000000000e+10  1.29446758190925e-04  2.72781503528581e-04  9.51990417660023e-01 -1.19535364849505e-01  9.51990417660023e-01 -1.19535364849505e-01  1.29446758190925e-04  2.72781503528581e-04
 1.83500000000000e+10  1.39800570293879e-04  3.09999948446038e-04  9.49685171644795e-01 -1.36174573410744e-01  9.49685171644795e-01 -1.36174573410744e-01  1.39800570293879e-04  3.09999948446038e-04
 1.84000000000000e+10  1.51449291915992e-04  3.46827970188129e-04  9.47089202138567e-01 -1.52769717560551e-01  9.47089202138567e-01 -1.52769717560551e-01  1.51449291915992e-04  3.46827970188129e-04
 1.84500000000000e+10  1.64378284562340e-04  3.83220542780665e-04  9.44203344966924e-01 -1.69315719421665e-01  9.44203344966924e-01 -1.69315719421665e-01  1.64378284562340e-04  3.83220542780665e-04
 1.85000000000000e+10  1.78571345040622e-04  4.19133186368127e-04  9.41028524622561e-01 -1.85807516865197e-01  9.41028524622561e-01 -1.85807516865197e-01  1.78571345040622e-04  4.19133186368127e-04
 1.85500000000000e+10  1.94010725745246e-04  4.54522021556677e-04  9.37565753970218e-01 -2.02240065058658e-01  9.37565753970218e-01 -2.02240065058658e-01  1.94010725745246e-04  4.54522021556677e-04
 1.86000000000000e+10  2.10677156827512e-04  4.89343823007017e-04  9.33816133924596e-01 -2.18608338008466e-01  9.33816133924596e-01 -2.18608338008466e-01  2.10677156827512e-04  4.89343823007017e-04
 1.86500000000000e+10  2.28549870225476e-04  5.23556072210792e-04  9.29780853101337e-01 -2.34907330096481e-01  9.29780853101337e-01 -2.34907330096481e-01  2.28549870225476e-04  5.23556072210792e-04
 1.87000000000000e+10  2.47606625521583e-04  5.57117009387204e-04  9.25461187441194e-01 -2.51132057610087e-01  9.25461187441194e-01 -2.51132057610087e-01  2.47606625521583e-04  5.57117009387204e-04
 1.87500000000000e+10  2.67823737596754e-04  5.89985684435793e-04  9.20858499807501e-01 -2.67277560265373e-01  9.20858499807501e-01 -2.67277560265373e-01  2.67823737596754e-04  5.89985684435793e-04
 1.88000000000000e+10  2.89176106047737e-04  6.22122006883144e-04  9.15974239557067e-01 -2.83338902722907e-01  9.15974239557067e-01 -2.83338902722907e-01  2.89176106047737e-04  6.22122006883144e-04
 1.88500000000000e+10  3.11637246328758e-04  6.53486794763214e-04  9.10809942084646e-01 -2.99311176095683e-01  9.10809942084646e-01 -2.99311176095683e-01  3.11637246328758e-04  6.53486794763214e-04
 1.89000000000000e+10  3.35179322580952e-04  6.84041822371366e-04  9.05367228341105e-01 -3.15189499448752e-01  9.05367228341105e-01 -3.15189499448752e-01  3.35179322580952e-04  6.84041822371366e-04
 1.89500000000000e+10  3.59773182108078e-04  7.13749866833620e-04  8.99647804325460e-01 -3.30969021290091e-01  8.99647804325460e-01 -3.30969021290091e-01  3.59773182108078e-04  7.13749866833620e-04
 1.90000000000000e+10  3.85388391455790e-04  7.42574753435029e-04  8.93653460550931e-01 -3.46644921052234e-01  8.93653460550931e-01 -3.46644921052234e-01  3.85388391455790e-04  7.42574753435029e-04
 1.90500000000000e+10  4.11993274050153e-04  7.70481399651516e-04  8.87386071485179e-01 -3.62212410564253e-01  8.87386071485179e-01 -3.62212410564253e-01  4.11993274050153e-04  7.70481399651516e-04
 1.91000000000000e+10  4.39554949348393e-04  7.97435857831722e-04  8.80847594964916e-01 -3.77666735513592e-01  8.80847594964916e-01 -3.77666735513592e-01  4.39554949348393e-04  7.97435857831722e-04
 1.91500000000000e+10  4.68039373453948e-04  8.23405356477103e-04  8.74040071585052e-01 -3.93003176897339e-01  8.74040071585052e-01 -3.93003176897339e-01  4.68039373453948e-04  8.23405356477103e-04
 1.92000000000000e+10  4.97411381145987e-04  8.48358340069719e-04  8.66965624062584e-01 -4.08217052462480e-01  8.66965624062584e-01 -4.08217052462480e-01  4.97411381145987e-04  8.48358340069719e-04
 1.92500000000000e+10  5.27634729270197e-04  8.72264507399991e-04  8.59626456575430e-01 -4.23303718134695e-01  8.59626456575430e-01 -4.23303718134695e-01  5.27634729270197e-04  8.72264507399991e-04
 1.93000000000000e+10  5.58672141438924e-04  8.95094848347085e-04  8.52024854076390e-01 -4.38258569435270e-01  8.52024854076390e-01 -4.38258569435270e-01  5.58672141438924e-04  8.95094848347085e-04
 1.93500000000000e+10  5.90485353984617e-04  9.16821679067772e-04  8.44163181582478e-01 -4.53077042885678e-01  8.44163181582478e-01 -4.53077042885678e-01  5.90485353984617e-04  9.16821679067772e-04
 1.94000000000000e+10  6.23035163110227e-04  9.37418675550958e-04  8.36043883439834e-01 -4.67754617399409e-01  8.36043883439834e-01 -4.67754617399409e-01  6.23035163110227e-04  9.37418675550958e-04
 1.94500000000000e+10  6.56281473178359e-04  9.56860905497885e-04  8.27669482564431e-01 -4.82286815660623e-01  8.27669482564431e-01 -4.82286815660623e-01  6.56281473178359e-04  9.56860905497885e-04
 1.95000000000000e+10  6.90183346079659e-04  9.75124858487350e-04  8.19042579658844e-01 -4.96669205489210e-01  8.19042579658844e-01 -4.96669205489210e-01  6.90183346079659e-04  9.75124858487350e-04
 1.95500000000000e+10  7.24699051620109e-04  9.92188474392831e-04  8.10165852405299e-01 -5.10897401191826e-01  8.10165852405299e-01 -5.10897401191826e-01  7.24699051620109e-04  9.92188474392831e-04
 1.96000000000000e+10  7.59786118864903e-04  1.00803117001307e-03  8.01042054635266e-01 -5.24967064898514e-01  8.01042054635266e-01 -5.24967064898514e-01  7.59786118864903e-04  1.00803117001307e-03
 1.96500000000000e+10  7.95401388375487e-04  1.02263386388870e-03  7.91674015475845e-01 -5.38873907884487e-01  7.91674015475845e-01 -5.38873907884487e-01  7.95401388375487e-04  1.02263386388870e-03
 1.97000000000000e+10  8.31501065276078e-04  1.03597899926981e-03  7.82064638473225e-01 -5.52613691876676e-01  7.82064638473225e-01 -5.52613691876676e-01  8.31501065276078e-04  1.03597899926981e-03
 1.97500000000000e+10  8.68040773084360e-04  1.04805056521149e-03  7.72216900693471e-01 -5.66182230344643e-01  7.72216900693471e-01 -5.66182230344643e-01  8.68040773084360e-04  1.04805056521149e-03
 1.98000000000000e+10  9.04975608239279e-04  1.05883411576908e-03  7.62133851800934e-01 -5.79575389775478e-01  7.62133851800934e-01 -5.79575389775478e-01  9.04975608239279e-04  1.05883411576908e-03
 1.98500000000000e+10  9.42260195261299e-04  1.06831678727155e-03  7.51818613114555e-01 -5.92789090932262e-01  7.51818613114555e-01 -5.92789090932262e-01  9.42260195261299e-04  1.06831678727155e-03
 1.99000000000000e+10  9.79848742473520e-04  1.07648731365086e-03  7.41274376642370e-01 -6.05819310095761e-01  7.41274376642370e-01 -6.05819310095761e-01  9.79848742473520e-04  1.07648731365086e-03
 1.99500000000000e+10  1.01769509822012e-03  1.08333603981191e-03  7.30504404094500e-01 -6.18662080288921e-01  7.30504404094500e-01 -6.18662080288921e-01  1.01769509822012e-03  1.08333603981191e-03
 2.00000000000000e+10  1.05575280750831e-03  1.08885493302327e-03  7.19512025874955e-01 -6.31313492483827e-01  7.19512025874955e-01 -6.31313492483827e-01  1.05575280750831e-03  1.08885493302327e-03
 2.00500000000000e+10  1.09397516900814e-03  1.09303759231903e-03  7.08300640052535e-01 -6.43769696790753e-01  7.08300640052535e-01 -6.43769696790753e-01  1.09397516900814e-03  1.09303759231903e-03
 2.01000000000000e+10  1.13231529233782e-03  1.09587925589833e-03  6.96873711311163e-01 -6.56026903628932e-01  6.96873711311163e-01 -6.56026903628932e-01  1.13231529233782e-03  1.09587925589833e-03
 2.01500000000000e+10  1.17072615556540e-03  1.09737680651514e-03  6.85234769879990e-01 -6.68081384878694e-01  6.85234769879990e-01 -6.68081384878694e-01  1.17072615556540e-03  1.09737680651514e-03
 2.02000000000000e+10  1.20916066285607e-03  1.09752877485203e-03  6.73387410443559e-01 -6.79929475014638e-01  6.73387410443559e-01 -6.79929475014638e-01  1.20916066285607e-03  1.09752877485203e-03
 2.02500000000000e+10  1.24757170219458e-03  1.09633534087409e-03  6.61335291032417e-01 -6.91567572219462e-01  6.61335291032417e-01 -6.91567572219462e-01  1.24757170219458e-03  1.09633534087409e-03
 2.03000000000000e+10  1.28591220311155e-03  1.09379833316209e-03  6.49082131894477e-01 -7.02992139478151e-01  6.49082131894477e-01 -7.02992139478151e-01  1.28591220311155e-03  1.09379833316209e-03
 2.03500000000000e+10  1.32413519434363e-03  1.08992122622624e-03  6.36631714347499e-01 -7.14199705652163e-01  6.36631714347499e-01 -7.14199705652163e-01  1.32413519434363e-03  1.08992122622624e-03
 2.04000000000000e+10  1.36219386135662e-03  1.08470913580491e-03  6.23987879613044e-01 -7.25186866533298e-01  6.23987879613044e-01 -7.25186866533298e-01  1.36219386135662e-03  1.08470913580491e-03
 2.04500000000000e+10  1.40004160366085e-03  1.07816881215286e-03  6.11154527632256e-01 -7.35950285876933e-01  6.11154527632256e-01 -7.35950285876933e-01  1.40004160366085e-03  1.07816881215286e-03
 2.05000000000000e+10  1.43763209184905e-03  1.07030863133004e-03  5.98135615863827e-01 -7.46486696414305e-01  5.98135615863827e-01 -7.46486696414305e-01  1.43763209184905e-03  1.07030863133004e-03
 2.05500000000000e+10  1.47491932428711e-03  1.06113858450084e-03  5.84935158064543e-01 -7.56792900843546e-01  5.84935158064543e-01 -7.56792900843546e-01  1.47491932428711e-03  1.06113858450084e-03
 2.06000000000000e+10  1.51185768338736e-03  1.05067026525723e-03  5.71557223052763e-01 -7.66865772799148e-01  5.71557223052763e-01 -7.66865772799148e-01  1.51185768338736e-03  1.05067026525723e-03
 2.06500000000000e+10  1.54840199139719e-03  1.03891685498267e-03  5.58005933455219e-01 -7.76702257799599e-01  5.58005933455219e-01 -7.76702257799599e-01  1.54840199139719e-03  1.03891685498267e-03
 2.07000000000000e+10  1.58450756563299e-03  1.02589310627492e-03  5.44285464437527e-01 -7.86299374172868e-01  5.44285464437527e-01 -7.86299374172868e-01  1.58450756563299e-03  1.02589310627492e-03
 2.07500000000000e+10  1.62013027309365e-03  1.01161532444815e-03  5.30400042418799e-01 -7.95654213959486e-01  5.30400042418799e-01 -7.95654213959486e-01  1.62013027309365e-03  1.01161532444815e-03
 2.08000000000000e+10  1.65522658438536e-03  9.96101347138268e-04  5.16353943770741e-01 -8.04763943792937e-01  5.16353943770741e-01 -8.04763943792937e-01  1.65522658438536e-03  9.96101347138268e-04
 2.08500000000000e+10  1.68975362689296e-03  9.79370522036269e-04  5.02151493501659e-01 -8.13625805757101e-01  5.02151493501659e-01 -8.13625805757101e-01  1.68975362689296e-03  9.79370522036269e-04
 2.09000000000000e+10  1.72366923713220e-03  9.61443682777716e-04  4.87797063925754e-01 -8.22237118220477e-01  4.87797063925754e-01 -8.22237118220477e-01  1.72366923713220e-03  9.61443682777716e-04
 2.09500000000000e+10  1.75693201221964e-03  9.42343123018671e-04  4.73295073318134e-01 -8.30595276646960e-01  4.73295073318134e-01 -8.30595276646960e-01  1.75693201221964e-03  9.42343123018671e-04
 2.10000000000000e+10  1.78950136039669e-03  9.22092568729428e-04  4.58649984555949e-01 -8.38697754382898e-01  4.58649984555949e-01 -8.38697754382898e-01  1.78950136039669e-03  9.22092568729428e-04
 2.10500000000000e+10  1.82133755054691e-03  9.00717148741628e-04  4.43866303746058e-01 -8.46542103420216e-01  4.43866303746058e-01 -8.46542103420216e-01  1.82133755054691e-03  9.00717148741628e-04
 2.11000000000000e+10  1.85240176064540e-03  8.78243363584052e-04  4.28948578839667e-01 -8.54125955135366e-01  4.28948578839667e-01 -8.54125955135366e-01  1.85240176064540e-03  8.78243363584052e-04
 2.11500000000000e+10  1.88265612508161e-03  8.54699052646716e-04  4.13901398234354e-01 -8.61447021003877e-01  4.13901398234354e-01 -8.61447021003877e-01  1.88265612508161e-03  8.54699052646716e-04
 2.12000000000000e+10  1.91206378079832e-03  8.30113359713597e-04  3.98729389363907e-01 -8.68503093290309e-01  3.98729389363907e-01 -8.68503093290309e-01  1.91206378079832e-03  8.30113359713597e-04
 2.12500000000000e+10  1.94058891218981e-03  8.04516696906299e-04  3.83437217276419e-01 -8.75292045713380e-01  3.83437217276419e-01 -8.75292045713380e-01  1.94058891218981e-03  8.04516696906299e-04
 2.13000000000000e+10  1.96819679470543e-03  7.77940707084081e-04  3.68029583201057e-01 -8.81811834086088e-01  3.68029583201057e-01 -8.81811834086088e-01  1.96819679470543e-03  7.77940707084081e-04
 2.13500000000000e+10  1.99485383710372e-03  7.50418224745219e-04  3.52511223103978e-01 -8.88060496930617e-01  3.52511223103978e-01 -8.88060496930617e-01  1.99485383710372e-03  7.50418224745219e-04
 2.14000000000000e+10  2.02052762230897e-03  7.21983235480247e-04  3.36886906233789e-01 -8.94036156067860e-01  3.36886906233789e-01 -8.94036156067860e-01  2.02052762230897e-03  7.21983235480247e-04
 2.14500000000000e+10  2.04518694681621e-03  6.92670834024377e-04  3.21161433657043e-01 -8.99737017181379e-01  3.21161433657043e-01 -8.99737017181379e-01  2.04518694681621e-03  6.92670834024377e-04
 2.15000000000000e+10  2.06880185860188e-03  6.62517180963857e-04  3.05339636784193e-01 -9.05161370355615e-01  3.05339636784193e-01 -9.05161370355615e-01  2.06880185860188e-03  6.62517180963857e-04
 2.15500000000000e+10  2.09134369348822e-03  6.31559458146417e-04  2.89426375886453e-01 -9.10307590588219e-01  2.89426375886453e-01 -9.10307590588219e-01  2.09134369348822e-03  6.31559458146417e-04
 2.16000000000000e+10  2.11278510992290e-03  5.99835822853883e-04  2.73426538604044e-01 -9.15174138276329e-01  2.73426538604044e-01 -9.15174138276329e-01  2.11278510992290e-03  5.99835822853883e-04
 2.16500000000000e+10  2.13310012212814e-03  5.67385360790933e-04  2.57345038446256e-01 -9.19759559676650e-01  2.57345038446256e-01 -9.19759559676650e-01  2.13310012212814e-03  5.67385360790933e-04
 2.17000000000000e+10  2.15226413157970e-03  5.34248037949474e-04  2.41186813283806e-01 -9.24062487339210e-01  2.41186813283806e-01 -9.24062487339210e-01  2.15226413157970e-03  5.34248037949474e-04
 2.17500000000000e+10  2.17025395677932e-03  5.00464651407168e-04  2.24956823833937e-01 -9.28081640514658e-01  2.24956823833937e-01 -9.28081640514658e-01  2.17025395677932e-03  5.00464651407168e-04
 2.18000000000000e+10  2.18704786128265e-03  4.66076779120673e-04  2.08660052138733e-01 -9.31815825534981e-01  2.08660052138733e-01 -9.31815825534981e-01  2.18704786128265e-03  4.66076779120673e-04
 2.18500000000000e+10  2.20262557994930e-03  4.31126728775719e-04  1.92301500037111e-01 -9.35263936167534e-01  1.92301500037111e-01 -9.35263936167534e-01  2.20262557994930e-03  4.31126728775719e-04
 2.19000000000000e+10  2.21696834338399e-03  3.95657485756500e-04  1.75886187630963e-01 -9.38424953942266e-01  1.75886187630963e-01 -9.38424953942266e-01  2.21696834338399e-03  3.95657485756500e-04
 2.19500000000000e+10  2.23005890053943e-03  3.59712660298747e-04  1.59419151745904e-01 -9.41297948452067e-01  1.59419151745904e-01 -9.41297948452067e-01  2.23005890053943e-03  3.59712660298747e-04
 2.20000000000000e+10  2.24188153945155e-03  3.23336433890956e-04  1.42905444387115e-01 -9.43882077626129e-01  1.42905444387115e-01 -9.43882077626129e-01  2.24188153945155e-03  3.23336433890956e-04
 2.20500000000000e+10  2.25242210608584e-03  2.86573504990048e-04  1.26350131190738e-01 -9.46176587976243e-01  1.26350131190738e-01 -9.46176587976243e-01  2.25242210608584e-03  2.86573504990048e-04
 2.21000000000000e+10  2.26166802126845e-03  2.49469034117888e-04  1.09758289871304e-01 -9.48180814815979e-01  1.09758289871304e-01 -9.48180814815979e-01  2.26166802126845e-03  2.49469034117888e-04
 2.21500000000000e+10  2.26960829568489e-03  2.12068588406133e-04  9.31350086656715e-02 -9.49894182452657e-01  9.31350086656715e-02 -9.49894182452657e-01  2.26960829568489e-03  2.12068588406133e-04
 2.22000000000000e+10  2.27623354292642e-03  1.74418085657508e-04  7.64853847739337e-02 -9.51316204352080e-01  7.64853847739337e-02 -9.51316204352080e-01  2.27623354292642e-03  1.74418085657508e-04
 2.22500000000000e+10  2.28153599056879e-03  1.36563737992063e-04  5.98145227978064e-02 -9.52446483275965e-01  5.98145227978064e-02 -9.52446483275965e-01  2.28153599056879e-03  1.36563737992063e-04
 2.23000000000000e+10  2.28550948927317e-03  9.85519951477138e-05  4.31275331769276e-02 -9.53284711392050e-01  4.31275331769276e-02 -9.53284711392050e-01  2.28550948927317e-03  9.85519951477138e-05
 2.23500000000000e+10  2.28814951989299e-03  6.04294875042970e-05  2.64295306235833e-02 -9.53830670356818e-01  2.64295306235833e-02 -9.53830670356818e-01  2.28814951989299e-03  6.04294875042970e-05
 2.24000000000000e+10  2.28945319858476e-03  2.22429689014163e-05  9.72563255632826e-03 -9.54084231370859e-01  9.72563255632826e-03 -9.54084231370859e-01  2.28945319858476e-03  2.22429689014163e-05
 2.24500000000000e+10  2.28941927991217e-03 -1.59607406802453e-05 -6.97904246704051e-03 -9.54045355206813e-01 -6.97904246704051e-03 -9.54045355206813e-01  2.28941927991217e-03 -1.59607406802453e-05
 2.25000000000000e+10  2.28804815794350e-03 -5.41348125035811e-05 -2.36793763166411e-02 -9.53714092209921e-01 -2.36793763166411e-02 -9.53714092209921e-01  2.28804815794350e-03 -5.41348125035811e-05
 2.25500000000000e+10  2.28534186533964e-03 -9.22324664555825e-05 -4.03702528573539e-02 -9.53090582271170e-01 -4.03702528573539e-02 -9.53090582271170e-01  2.28534186533964e-03 -9.22324664555825e-05
 2.26000000000000e+10  2.28130407043499e-03 -1.30207028353362e-04 -5.70465595148546e-02 -9.52175054773046e-01 -5.70465595148546e-02 -9.52175054773046e-01  2.28130407043499e-03 -1.30207028353362e-04
 2.26500000000000e+10  2.27594007231553e-03 -1.68011987105488e-04 -7.37031888403631e-02 -9.50967828507923e-01 -7.37031888403631e-02 -9.50967828507923e-01  2.27594007231553e-03 -1.68011987105488e-04
 2.27000000000000e+10  2.26925679389955e-03 -2.05601051658714e-04 -9.03350400736403e-02 -9.49469311569108e-01 -9.03350400736403e-02 -9.49469311569108e-01  2.26925679389955e-03 -2.05601051658714e-04
 2.27500000000000e+10  2.26126277303245e-03 -2.42928207660413e-04 -1.06937020703740e-01 -9.47680001214577e-01 -1.06937020703740e-01 -9.47680001214577e-01  2.26126277303245e-03 -2.42928207660413e-04
 2.28000000000000e+10  2.25196815160365e-03 -2.79947773767242e-04 -1.23504048027038e-01 -9.45600483703460e-01 -1.23504048027038e-01 -9.45600483703460e-01  2.25196815160365e-03 -2.79947773767242e-04
 2.28500000000000e+10  2.24138466270203e-03 -3.16614457531347e-04 -1.40031050702098e-01 -9.43231434105306e-01 -1.40031050702098e-01 -9.43231434105306e-01  2.24138466270203e-03 -3.16614457531347e-04
 2.29000000000000e+10  2.22952561582570e-03 -3.52883410795700e-04 -1.56512970300843e-01 -9.40573616082214e-01 -1.56512970300843e-01 -9.40573616082214e-01  2.22952561582570e-03 -3.52883410795700e-04
 2.29500000000000e+10  2.21640588016350e-03 -3.88710284530765e-04 -1.72944762855609e-01 -9.37627881643878e-01 -1.72944762855609e-01 -9.37627881643878e-01  2.21640588016350e-03 -3.88710284530765e-04
 2.30000000000000e+10  2.20204186597065e-03 -4.24051283045502e-04 -1.89321400401580e-01 -9.34395170875640e-01 -1.89321400401580e-01 -9.34395170875640e-01  2.20204186597065e-03 -4.24051283045502e-04
 2.30500000000000e+10  2.18645150406086e-03 -4.58863217506604e-04 -2.05637872514146e-01 -9.30876511639626e-01 -2.05637872514146e-01 -9.30876511639626e-01  2.18645150406086e-03 -4.58863217506604e-04
 2.31000000000000e+10  2.16965422344126e-03 -4.93103558700332e-04 -2.21889187840714e-01 -9.27073019249067e-01 -2.21889187840714e-01 -9.27073019249067e-01  2.16965422344126e-03 -4.93103558700332e-04
 2.31500000000000e+10  2.15167092711703e-03 -5.26730488972761e-04 -2.38070375626499e-01 -9.22985896115896e-01 -2.38070375626499e-01 -9.22985896115896e-01  2.15167092711703e-03 -5.26730488972761e-04
 2.32000000000000e+10  2.13252396609735e-03 -5.59702953284976e-04 -2.54176487233830e-01 -9.18616431371749e-01 -2.54176487233830e-01 -9.18616431371749e-01  2.13252396609735e-03 -5.59702953284976e-04
 2.32500000000000e+10  2.11223711163286e-03 -5.91980709320460e-04 -2.70202597654526e-01 -9.13966000462472e-01 -2.70202597654526e-01 -9.13966000462472e-01  2.11223711163286e-03 -5.91980709320460e-04
 2.33000000000000e+10  2.09083552572160e-03 -6.23524376584640e-04 -2.86143807014849e-01 -9.09036064716267e-01 -2.86143807014849e-01 -9.09036064716267e-01  2.09083552572160e-03 -6.23524376584640e-04
 2.33500000000000e+10  2.06834572991723e-03 -6.54295484435109e-04 -3.01995242072595e-01 -9.03828170885613e-01 -3.01995242072595e-01 -9.03828170885613e-01  2.06834572991723e-03 -6.54295484435109e-04
 2.34000000000000e+10  2.04479557248129e-03 -6.84256518985778e-04 -3.17752057705873e-01 -8.98343950663103e-01 -3.17752057705873e-01 -8.98343950663103e-01  2.04479557248129e-03 -6.84256518985778e-04
 2.34500000000000e+10  2.02021419391687e-03 -7.13370968825995e-04 -3.33409438393097e-01 -8.92585120171348e-01 -3.33409438393097e-01 -8.92585120171348e-01  2.02021419391687e-03 -7.13370968825995e-04
 2.35000000000000e+10  1.99463199092894e-03 -7.41603369500339e-04 -3.48962599683757e-01 -8.86553479427098e-01 -3.48962599683757e-01 -8.86553479427098e-01  1.99463199092894e-03 -7.41603369500339e-04
 2.35500000000000e+10  1.96808057885434e-03 -7.68919346694203e-04 -3.64406789659514e-01 -8.80250911779770e-01 -3.64406789659514e-01 -8.80250911779770e-01  1.96808057885434e-03 -7.68919346694203e-04
 2.36000000000000e+10  1.94059275260885e-03 -7.95285658072698e-04 -3.79737290385161e-01 -8.73679383324522e-01 -3.79737290385161e-01 -8.73679383324522e-01  1.94059275260885e-03 -7.95285658072698e-04
 2.36500000000000e+10  1.91220244619889e-03 -8.20670233722173e-04 -3.94949419349049e-01 -8.66840942290085e-01 -3.94949419349049e-01 -8.66840942290085e-01  1.91220244619889e-03 -8.20670233722173e-04
 2.37000000000000e+10  1.88294469084758e-03 -8.45042215144730e-04 -4.10038530892478e-01 -8.59737718401528e-01 -4.10038530892478e-01 -8.59737718401528e-01  1.88294469084758e-03 -8.45042215144730e-04
 2.37500000000000e+10  1.85285557178771e-03 -8.68371992759105e-04 -4.25000017627669e-01 -8.52371922218152e-01 -4.25000017627669e-01 -8.52371922218152e-01  1.85285557178771e-03 -8.68371992759105e-04
 2.38000000000000e+10  1.82197218377420e-03 -8.90631241861178e-04 -4.39829311843860e-01 -8.44745844446726e-01 -4.39829311843860e-01 -8.44745844446726e-01  1.82197218377420e-03 -8.90631241861178e-04
 2.38500000000000e+10  1.79033258537108e-03 -9.11792957001770e-04 -4.54521886901100e-01 -8.36861855230272e-01 -4.54521886901100e-01 -8.36861855230272e-01  1.79033258537108e-03 -9.11792957001770e-04
 2.39000000000000e+10  1.75797575206934e-03 -9.31831484739267e-04 -4.69073258611314e-01 -8.28722403412614e-01 -4.69073258611314e-01 -8.28722403412614e-01  1.75797575206934e-03 -9.31831484739267e-04
 2.39500000000000e+10  1.72494152829313e-03 -9.50722554726947e-04 -4.83478986606237e-01 -8.20330015778924e-01 -4.83478986606237e-01 -8.20330015778924e-01  1.72494152829313e-03 -9.50722554726947e-04
 2.40000000000000e+10  1.69127057835358e-03 -9.68443309098503e-04 -4.97734675691768e-01 -8.11687296272501e-01 -4.97734675691768e-01 -8.11687296272501e-01  1.69127057835358e-03 -9.68443309098503e-04
 2.40500000000000e+10  1.65700433641066e-03 -9.84972330115290e-04 -5.11835977188359e-01 -8.02796925188021e-01 -5.11835977188359e-01 -8.02796925188021e-01  1.65700433641066e-03 -9.84972330115290e-04
 2.41000000000000e+10  1.62218495550495e-03 -1.00028966604200e-03 -5.25778590257011e-01 -7.93661658341500e-01 -5.25778590257011e-01 -7.93661658341500e-01  1.62218495550495e-03 -1.00028966604200e-03
 2.41500000000000e+10  1.58685525572004e-03 -1.01437685522005e-03 -5.39558263210486e-01 -7.84284326217239e-01 -5.39558263210486e-01 -7.84284326217239e-01  1.58685525572004e-03 -1.01437685522005e-03
 2.42000000000000e+10  1.55105867154291e-03 -1.02721694830860e-03 -5.53170794809331e-01 -7.74667833092006e-01 -5.53170794809331e-01 -7.74667833092006e-01  1.55105867154291e-03 -1.02721694830860e-03
 2.42500000000000e+10  1.51483919848314e-03 -1.03879452866749e-03 -5.66612035542310e-01 -7.64815156136726e-01 -5.66612035542310e-01 -7.64815156136726e-01  1.51483919848314e-03 -1.03879452866749e-03
 2.43000000000000e+10  1.47824133901942e-03 -1.04909573085727e-03 -5.79877888890876e-01 -7.54729344495952e-01 -5.79877888890876e-01 -7.54729344495952e-01  1.47824133901942e-03 -1.04909573085727e-03
 2.43500000000000e+10  1.44131004793766e-03 -1.05810825723339e-03 -5.92964312577264e-01 -7.44413518345409e-01 -5.92964312577264e-01 -7.44413518345409e-01  1.44131004793766e-03 -1.05810825723339e-03
 2.44000000000000e+10  1.40409067712941e-03 -1.06582139261613e-03 -6.05867319795862e-01 -7.33870867927887e-01 -6.05867319795862e-01 -7.33870867927887e-01  1.40409067712941e-03 -1.06582139261613e-03
 2.44500000000000e+10  1.36662891991757e-03 -1.07222601701721e-03 -6.18582980427446e-01 -7.23104652567804e-01 -6.18582980427446e-01 -7.23104652567804e-01  1.36662891991757e-03 -1.07222601701721e-03
 2.45000000000000e+10  1.32897075497707e-03 -1.07731461640880e-03 -6.31107422235954e-01 -7.12118199664707e-01 -6.31107422235954e-01 -7.12118199664707e-01  1.32897075497707e-03 -1.07731461640880e-03
 2.45500000000000e+10  1.29116238992152e-03 -1.08108129152287e-03 -6.43436832047383e-01 -7.00914903666055e-01 -6.43436832047383e-01 -7.00914903666055e-01  1.29116238992152e-03 -1.08108129152287e-03
 2.46000000000000e+10  1.25325020462226e-03 -1.08352176466917e-03 -6.55567456910492e-01 -6.89498225019583e-01 -6.55567456910492e-01 -6.89498225019583e-01  1.25325020462226e-03 -1.08352176466917e-03
 2.46500000000000e+10  1.21528069433116e-03 -1.08463338456441e-03 -6.67495605238932e-01 -6.77871689105560e-01 -6.67495605238932e-01 -6.77871689105560e-01  1.21528069433116e-03 -1.08463338456441e-03
 2.47000000000000e+10  1.17730041267612e-03 -1.08441512916841e-03 -6.79217647934471e-01 -6.66038885149296e-01 -6.79217647934471e-01 -6.66038885149296e-01  1.17730041267612e-03 -1.08441512916841e-03
 2.47500000000000e+10  1.13935591460030e-03 -1.08286760652261e-03 -6.90730019490955e-01 -6.54003465114211e-01 -6.90730019490955e-01 -6.54003465114211e-01  1.13935591460030e-03 -1.08286760652261e-03
 2.48000000000000e+10  1.10149369931253e-03 -1.07999305359131e-03 -7.02029219078685e-01 -6.41769142575806e-01 -7.02029219078685e-01 -6.41769142575806e-01  1.10149369931253e-03 -1.07999305359131e-03
 2.48500000000000e+10  1.06376015332198e-03 -1.07579533310704e-03 -7.13111811608866e-01 -6.29339691576897e-01 -7.13111811608866e-01 -6.29339691576897e-01  1.06376015332198e-03 -1.07579533310704e-03
 2.49000000000000e+10  1.02620149362363e-03 -1.07027992842542e-03 -7.23974428777821e-01 -6.16718945464450e-01 -7.23974428777821e-01 -6.16718945464450e-01  1.02620149362363e-03 -1.07027992842542e-03
 2.49500000000000e+10  9.88863711107369e-04 -1.06345393639499e-03 -7.34613770090613e-01 -6.03910795708394e-01 -7.34613770090613e-01 -6.03910795708394e-01  9.88863711107369e-04 -1.06345393639499e-03
 2.50000000000000e+10  9.51792514256878e-04 -1.05532605825194e-03 -7.45026603863830e-01 -5.90919190702732e-01 -7.45026603863830e-01 -5.90919190702732e-01  9.51792514256878e-04 -1.05532605825194e-03
 2.50500000000000e+10  9.15033273209615e-04 -1.04590658855161e-03 -7.55209768207149e-01 -5.77748134549386e-01 -7.55209768207149e-01 -5.77748134549386e-01  9.15033273209615e-04 -1.04590658855161e-03
 2.51000000000000e+10  8.78630964244963e-04 -1.03520740215021e-03 -7.65160171983447e-01 -5.64401685825073e-01 -7.65160171983447e-01 -5.64401685825073e-01  8.78630964244963e-04 -1.03520740215021e-03
 2.51500000000000e+10  8.42630114768934e-04 -1.02324193925352e-03 -7.74874795747121e-01 -5.50883956331661e-01 -7.74874795747121e-01 -5.50883956331661e-01  8.42630114768934e-04 -1.02324193925352e-03
 2.52000000000000e+10  8.07074748862873e-04 -1.01002518855148e-03 -7.84350692660360e-01 -5.37199109830342e-01 -7.84350692660360e-01 -5.37199109830342e-01  8.07074748862873e-04 -1.01002518855148e-03
 2.52500000000000e+10  7.72008333462141e-04 -9.95573668459356e-04 -7.93584989387066e-01 -5.23351360760026e-01 -7.93584989387066e-01 -5.23351360760026e-01  7.72008333462141e-04 -9.95573668459356e-04
 2.53000000000000e+10  7.37473725231387e-04 -9.79905406489622e-04 -8.02574886964176e-01 -5.09344972940363e-01 -8.02574886964176e-01 -5.09344972940363e-01  7.37473725231387e-04 -9.79905406489622e-04
 2.53500000000000e+10  7.03513118200454e-04 -9.63039916779625e-04 -8.11317661650103e-01 -4.95184258259761e-01 -8.11317661650103e-01 -4.95184258259761e-01  7.03513118200454e-04 -9.63039916779625e-04
 2.54000000000000e+10  6.70167992225686e-04 -9.44998175803230e-04 -8.19810665750036e-01 -4.80873575348848e-01 -8.19810665750036e-01 -4.80873575348848e-01  6.70167992225686e-04 -9.44998175803230e-04
 2.54500000000000e+10  6.37479062338839e-04 -9.25802596296882e-04 -8.28051328417870e-01 -4.66417328239724e-01 -8.28051328417870e-01 -4.66417328239724e-01  6.37479062338839e-04 -9.25802596296882e-04
 2.55000000000000e+10  6.05486229046162e-04 -9.05476999432249e-04 -8.36037156434494e-01 -4.51819965011488e-01 -8.36037156434494e-01 -4.51819965011488e-01  6.05486229046162e-04 -9.05476999432249e-04
 2.55500000000000e+10  5.74228529637577e-04 -8.84046585270061e-04 -8.43765734962213e-01 -4.37085976422390e-01 -8.43765734962213e-01 -4.37085976422390e-01  5.74228529637577e-04 -8.84046585270061e-04
 2.56000000000000e+10  5.43744090566443e-04 -8.61537901531699e-04 -8.51234728275085e-01 -4.22219894529076e-01 -8.51234728275085e-01 -4.22219894529076e-01  5.43744090566443e-04 -8.61537901531699e-04
 2.56500000000000e+10  5.14070080955982e-04 -8.37978810727184e-04 -8.58441880464928e-01 -4.07226291293318e-01 -8.58441880464928e-01 -4.07226291293318e-01  5.14070080955982e-04 -8.37978810727184e-04
 2.57000000000000e+10  4.85242667292016e-04 -8.13398455680496e-04 -8.65385016122802e-01 -3.92109777176689e-01 -8.65385016122802e-01 -3.92109777176689e-01  4.85242667292016e-04 -8.13398455680496e-04
 2.57500000000000e+10  4.57296969354251e-04 -7.87827223494316e-04 -8.72062040995758e-01 -3.76874999723568e-01 -8.72062040995758e-01 -3.76874999723568e-01  4.57296969354251e-04 -7.87827223494316e-04
 2.58000000000000e+10  4.30267017441571e-04 -7.61296707999574e-04 -8.78470942618630e-01 -3.61526642132979e-01 -8.78470942618630e-01 -3.61526642132979e-01  4.30267017441571e-04 -7.61296707999574e-04
 2.58500000000000e+10  4.04185710943281e-04 -7.33839670735299e-04 -8.84609790920722e-01 -3.46069421819621e-01 -8.84609790920722e-01 -3.46069421819621e-01  4.04185710943281e-04 -7.33839670735299e-04
 2.59000000000000e+10  3.79084778305969e-04 -7.05490000507510e-04 -8.90476738807160e-01 -3.30508088964606e-01 -8.90476738807160e-01 -3.30508088964606e-01  3.79084778305969e-04 -7.05490000507510e-04
 2.59500000000000e+10  3.54994738445665e-04 -6.76282671576803e-04 -8.96070022714768e-01 -3.14847425056305e-01 -8.96070022714768e-01 -3.14847425056305e-01  3.54994738445665e-04 -6.76282671576803e-04
 2.60000000000000e+10  3.31944863650950e-04 -6.46253700526468e-04 -9.01387963142282e-01 -2.99092241421761e-01 -9.01387963142282e-01 -2.99092241421761e-01  3.31944863650950e-04 -6.46253700526468e-04
 2.60500000000000e+10  3.09963144023736e-04 -6.15440101863787e-04 -9.06428965154739e-01 -2.83247377749137e-01 -9.06428965154739e-01 -2.83247377749137e-01  3.09963144023736e-04 -6.15440101863787e-04
 2.61000000000000e+10  2.89076253499737e-04 -5.83879842409844e-04 -9.11191518861911e-01 -2.67317700601616e-01 -9.11191518861911e-01 -2.67317700601616e-01  2.89076253499737e-04 -5.83879842409844e-04
 2.61500000000000e+10  2.69309517489735e-04 -5.51611794533665e-04 -9.15674199870605e-01 -2.51308101923256e-01 -9.15674199870605e-01 -2.51308101923256e-01  2.69309517489735e-04 -5.51611794533665e-04
 2.62000000000000e+10  2.50686882181827e-04 -5.18675688288404e-04 -9.19875669710729e-01 -2.35223497537219e-01 -9.19875669710729e-01 -2.35223497537219e-01  2.50686882181827e-04 -5.18675688288404e-04
 2.62500000000000e+10  2.33230885541547e-04 -4.85112062508267e-04 -9.23794676234964e-01 -2.19068825636873e-01 -9.23794676234964e-01 -2.19068825636873e-01  2.33230885541547e-04 -4.85112062508267e-04
 2.63000000000000e+10  2.16962630044536e-04 -4.50962214926755e-04 -9.27430053991948e-01 -2.02849045270173e-01 -9.27430053991948e-01 -2.02849045270173e-01  2.16962630044536e-04 -4.50962214926755e-04
 2.63500000000000e+10  2.01901757174301e-04 -4.16268151377302e-04 -9.30780724572840e-01 -1.86569134817875e-01 -9.30780724572840e-01 -1.86569134817875e-01  2.01901757174301e-04 -4.16268151377302e-04
 2.64000000000000e+10  1.88066423718201e-04 -3.81072534138671e-04 -9.33845696931171e-01 -1.70234090465958e-01 -9.33845696931171e-01 -1.70234090465958e-01  1.88066423718201e-04 -3.81072534138671e-04
 2.64500000000000e+10  1.75473279887235e-04 -3.45418629489106e-04 -9.36624067675889e-01 -1.53848924672771e-01 -9.36624067675889e-01 -1.53848924672771e-01  1.75473279887235e-04 -3.45418629489106e-04
 2.65000000000000e+10  1.64137449287974e-04 -3.09350254533124e-04 -9.39115021337495e-01 -1.37418664631401e-01 -9.39115021337495e-01 -1.37418664631401e-01  1.64137449287974e-04 -3.09350254533124e-04
 2.65500000000000e+10  1.54072510770521e-04 -2.72911723366564e-04 -9.41317830607217e-01 -1.20948350727662e-01 -9.41317830607217e-01 -1.20948350727662e-01  1.54072510770521e-04 -2.72911723366564e-04
 2.66000000000000e+10  1.45290482172828e-04 -2.36147792646152e-04 -9.43231856549119e-01 -1.04443034994246e-01 -9.43231856549119e-01 -1.04443034994246e-01  1.45290482172828e-04 -2.36147792646152e-04
 2.66500000000000e+10  1.37801805982961e-04 -1.99103606630140e-04 -9.44856548785117e-01 -8.79077795614744e-02 -9.44856548785117e-01 -8.79077795614744e-02  1.37801805982961e-04 -1.99103606630140e-04
 2.67000000000000e+10  1.31615336935152e-04 -1.61824641757554e-04 -9.46191445652816e-01 -7.13476551051446e-02 -9.46191445652816e-01 -7.13476551051446e-02  1.31615336935152e-04 -1.61824641757554e-04
 2.67500000000000e+10  1.26738331554052e-04 -1.24356650834333e-04 -9.47236174336152e-01 -5.47677392919301e-02 -9.47236174336152e-01 -5.47677392919301e-02  1.26738331554052e-04 -1.24356650834333e-04
 2.68000000000000e+10  1.23176439660774e-04 -8.67456068945091e-05 -9.47990450968774e-01 -3.81731152228287e-02 -9.47990450968774e-01 -3.81731152228287e-02  1.23176439660774e-04 -8.67456068945091e-05
 2.68500000000000e+10  1.20933697849133e-04 -4.90376468054866e-05 -9.48454080710165e-01 -2.15688698751255e-02 -9.48454080710165e-01 -2.15688698751255e-02  1.20933697849133e-04 -4.90376468054866e-05
 2.69000000000000e+10  1.20012524941135e-04 -1.12790146865893e-05 -9.48626957794452e-01 -4.96009254336388e-03 -9.48626957794452e-01 -4.96009254336388e-03  1.20012524941135e-04 -1.12790146865893e-05
 2.69500000000000e+10  1.20413719425046e-04  2.64839947898752e-05 -9.48509065551922e-01  1.16481267202345e-02 -9.48509065551922e-01  1.16481267202345e-02  1.20413719425046e-04  2.64839947898752e-05
 2.70000000000000e+10  1.22136458881037e-04  6.42050931453437e-05 -9.48100476403222e-01  2.82506986653522e-02 -9.48100476403222e-01  2.82506986653522e-02  1.22136458881037e-04  6.42050931453437e-05
 2.70500000000000e+10  1.25178301392323e-04  1.01838054820142e-04 -9.47401351826250e-01  4.48425364027677e-02 -9.47401351826250e-01  4.48425364027677e-02  1.25178301392323e-04  1.01838054820142e-04
 2.71000000000000e+10  1.29535188939987e-04  1.39336773807436e-04 -9.46411942295762e-01  6.14185569626085e-02 -9.46411942295762e-01  6.14185569626085e-02  1.29535188939987e-04  1.39336773807436e-04
 2.71500000000000e+10  1.35201452779217e-04  1.76655320126616e-04 -9.45132587195699e-01  7.79736828512183e-02 -9.45132587195699e-01  7.79736828512183e-02  1.35201452779217e-04  1.76655320126616e-04
 2.72000000000000e+10  1.42169820785716e-04  2.13747996067060e-04 -9.43563714704282e-01  9.45028436061596e-02 -9.43563714704282e-01  9.45028436061596e-02  1.42169820785716e-04  2.13747996067060e-04
 2.72500000000000e+10  1.50431426767229e-04  2.50569392133260e-04 -9.41705841651901e-01  1.11000977348882e-01 -9.41705841651901e-01  1.11000977348882e-01  1.50431426767229e-04  2.50569392133260e-04
 2.73000000000000e+10  1.59975821724463e-04  2.87074442622925e-04 -9.39559573351847e-01  1.27463032334537e-01 -9.39559573351847e-01  1.27463032334537e-01  1.59975821724463e-04  2.87074442622925e-04
 2.73500000000000e+10  1.70790987050227e-04  3.23218480770076e-04 -9.37125603403952e-01  1.43883968498531e-01 -9.37125603403952e-01  1.43883968498531e-01  1.70790987050227e-04  3.23218480770076e-04
 2.74000000000000e+10  1.82863349647536e-04  3.58957293385509e-04 -9.34404713471190e-01  1.60258758999282e-01 -9.34404713471190e-01  1.60258758999282e-01  1.82863349647536e-04  3.58957293385509e-04
 2.74500000000000e+10  1.96177798949503e-04  3.94247174928120e-04 -9.31397773029309e-01  1.76582391756750e-01 -9.31397773029309e-01  1.76582391756750e-01  1.96177798949503e-04  3.94247174928120e-04
 2.75000000000000e+10  2.10717705819400e-04  4.29044980940436e-04 -9.28105739089591e-01  1.92849870986235e-01 -9.28105739089591e-01  1.92849870986235e-01  2.10717705819400e-04  4.29044980940436e-04
 2.75500000000000e+10  2.26464943306182e-04  4.63308180783625e-04 -9.24529655894807e-01  2.09056218727004e-01 -9.24529655894807e-01  2.09056218727004e-01  2.26464943306182e-04  4.63308180783625e-04
 2.76000000000000e+10  2.43399909230761e-04  4.96994909607298e-04 -9.20670654588484e-01  2.25196476365247e-01 -9.20670654588484e-01  2.25196476365247e-01  2.43399909230761e-04  4.96994909607298e-04
 2.76500000000000e+10  2.61501550574274e-04  5.30064019490267e-04 -9.16529952857568e-01  2.41265706150929e-01 -9.16529952857568e-01  2.41265706150929e-01  2.61501550574274e-04  5.30064019490267e-04
 2.77000000000000e+10  2.80747389638549e-04  5.62475129690513e-04 -9.12108854548623e-01  2.57258992708044e-01 -9.12108854548623e-01  2.57258992708044e-01  2.80747389638549e-04  5.62475129690513e-04
 2.77500000000000e+10  3.01113551945981e-04  5.94188675942140e-04 -9.07408749257656e-01  2.73171444537816e-01 -9.07408749257656e-01  2.73171444537816e-01  3.01113551945981e-04  5.94188675942140e-04
 2.78000000000000e+10  3.22574795843130e-04  6.25165958740188e-04 -9.02431111893729e-01  2.88998195514419e-01 -9.02431111893729e-01  2.88998195514419e-01  3.22574795843130e-04  6.25165958740188e-04
 2.78500000000000e+10  3.45104543774092e-04  6.55369190553160e-04 -8.97177502216468e-01  3.04734406372684e-01 -8.97177502216468e-01  3.04734406372684e-01  3.45104543774092e-04  6.55369190553160e-04
 2.79000000000000e+10  3.68674915181491e-04  6.84761541907052e-04 -8.91649564347635e-01  3.20375266187429e-01 -8.91649564347635e-01  3.20375266187429e-01  3.68674915181491e-04  6.84761541907052e-04
 2.79500000000000e+10  3.93256760997541e-04  7.13307186283174e-04 -8.85849026256905e-01  3.35915993843889e-01 -8.85849026256905e-01  3.35915993843889e-01  3.93256760997541e-04  7.13307186283174e-04
 2.80000000000000e+10  4.18819699679885e-04  7.40971343776505e-04 -8.79777699222015e-01  3.51351839498823e-01 -8.79777699222015e-01  3.51351839498823e-01  4.18819699679885e-04  7.40971343776505e-04
 2.80500000000000e+10  4.45332154749529e-04  7.67720323460087e-04 -8.73437477263452e-01  3.66678086031851e-01 -8.73437477263452e-01  3.66678086031851e-01  4.45332154749529e-04  7.67720323460087e-04
 2.81000000000000e+10  4.72761393783723e-04  7.93521564405497e-04 -8.66830336553857e-01  3.81890050486588e-01 -8.66830336553857e-01  3.81890050486588e-01  4.72761393783723e-04  7.93521564405497e-04
 2.81500000000000e+10  5.01073568815280e-04  8.18343675307116e-04 -8.59958334802329e-01  3.96983085501102e-01 -8.59958334802329e-01  3.96983085501102e-01  5.01073568815280e-04  8.18343675307116e-04
 2.82000000000000e+10  5.30233758089931e-04  8.42156472664372e-04 -8.52823610613828e-01  4.11952580727282e-01 -8.52823610613828e-01  4.11952580727282e-01  5.30233758089931e-04  8.42156472664372e-04
 2.82500000000000e+10  5.60206009127927e-04  8.64931017474070e-04 -8.45428382823866e-01  4.26793964238702e-01 -8.45428382823866e-01  4.26793964238702e-01  5.60206009127927e-04  8.64931017474070e-04
 2.83000000000000e+10  5.90953383039209e-04  8.86639650388900e-04 -8.37774949808709e-01  4.41502703926488e-01 -8.37774949808709e-01  4.41502703926488e-01  5.90953383039209e-04  8.86639650388900e-04
 2.83500000000000e+10  6.22438000035756e-04  9.07256025298564e-04 -8.29865688771282e-01  4.56074308882841e-01 -8.29865688771282e-01  4.56074308882841e-01  6.22438000035756e-04  9.07256025298564e-04
 2.84000000000000e+10  6.54621086086201e-04  9.26755141294051e-04 -8.21703055003033e-01  4.70504330771723e-01 -8.21703055003033e-01  4.70504330771723e-01  6.54621086086201e-04  9.26755141294051e-04
 2.84500000000000e+10  6.87463020654222e-04  9.45113372975230e-04 -8.13289581121949e-01  4.84788365186340e-01 -8.13289581121949e-01  4.84788365186340e-01  6.87463020654222e-04  9.45113372975230e-04
 2.85000000000000e+10  7.20923385462923e-04  9.62308499065363e-04 -8.04627876286994e-01  4.98922052992973e-01 -8.04627876286994e-01  4.98922052992973e-01  7.20923385462923e-04  9.62308499065363e-04
 2.85500000000000e+10  7.54961014224804e-04  9.78319729298136e-04 -7.95720625389186e-01  5.12901081660770e-01 -7.95720625389186e-01  5.12901081660770e-01  7.54961014224804e-04  9.78319729298136e-04
 2.86000000000000e+10  7.89534043275592e-04  9.93127729544202e-04 -7.86570588219591e-01  5.26721186577073e-01 -7.86570588219591e-01  5.26721186577073e-01  7.89534043275592e-04  9.93127729544202e-04
 2.86500000000000e+10  8.24599963051019e-04  1.00671464514760e-03 -7.77180598614464e-01  5.40378152347905e-01 -7.77180598614464e-01  5.40378152347905e-01  8.24599963051019e-04  1.00671464514760e-03
 2.87000000000000e+10  8.60115670341451e-04  1.01906412244274e-03 -7.67553563577841e-01  5.53867814083181e-01 -7.67553563577841e-01  5.53867814083181e-01  8.60115670341451e-04  1.01906412244274e-03
 2.87500000000000e+10  8.96037521262100e-04  1.03016132842749e-03 -7.57692462381798e-01  5.67186058666312e-01 -7.57692462381798e-01  5.67186058666312e-01  8.96037521262100e-04  1.03016132842749e-03
 2.88000000000000e+10  9.32321384872071e-04  1.03999296856774e-03 -7.47600345644721e-01  5.80328826007749e-01 -7.47600345644721e-01  5.80328826007749e-01  9.32321384872071e-04  1.03999296856774e-03
 2.88500000000000e+10  9.68922697377209e-04  1.04854730271203e-03 -7.37280334387828e-01  5.93292110282124e-01 -7.37280334387828e-01  5.93292110282124e-01  9.68922697377209e-04  1.04854730271203e-03
 2.89000000000000e+10  1.00579651685045e-03  1.05581415909778e-03 -7.26735619070247e-01  6.06071961148606e-01 -7.26735619070247e-01  6.06071961148606e-01  1.00579651685045e-03  1.05581415909778e-03
 2.89500000000000e+10  1.04289757840158e-03  1.06178494643218e-03 -7.15969458602954e-01  6.18664484954106e-01 -7.15969458602954e-01  6.18664484954106e-01  1.04289757840158e-03  1.06178494643218e-03
 2.90000000000000e+10  1.08018034972950e-03  1.06645266403326e-03 -7.04985179341882e-01  6.31065845918937e-01 -7.04985179341882e-01  6.31065845918937e-01  1.08018034972950e-03  1.06645266403326e-03
 2.90500000000000e+10  1.11759908698834e-03  1.06981191001946e-03 -6.93786174060490e-01  6.43272267304606e-01 -6.93786174060490e-01  6.43272267304606e-01  1.11759908698834e-03  1.06981191001946e-03
 2.91000000000000e+10  1.15510789089972e-03  1.07185888753779e-03 -6.82375900902132e-01  6.55280032563360e-01 -6.82375900902132e-01  6.55280032563360e-01  1.15510789089972e-03  1.07185888753779e-03
 2.91500000000000e+10  1.19266076304047e-03  1.07259140902373e-03 -6.70757882312551e-01  6.67085486469136e-01 -6.70757882312551e-01  6.67085486469136e-01  1.19266076304047e-03  1.07259140902373e-03
 2.92000000000000e+10  1.23021166223943e-03  1.07200889848831e-03 -6.58935703952802e-01  6.78685036229593e-01 -6.58935703952802e-01  6.78685036229593e-01  1.23021166223943e-03  1.07200889848831e-03
 2.92500000000000e+10  1.26771456101188e-03  1.07011239182930e-03 -6.46913013592974e-01  6.90075152578860e-01 -6.46913013592974e-01  6.90075152578860e-01  1.26771456101188e-03  1.07011239182930e-03
 2.93000000000000e+10  1.30512350196374e-03  1.06690453516754e-03 -6.34693519987025e-01  7.01252370850692e-01 -6.34693519987025e-01  7.01252370850692e-01  1.30512350196374e-03  1.06690453516754e-03
 2.93500000000000e+10  1.34239265409627e-03  1.06238958121056e-03 -6.22280991729110e-01  7.12213292031677e-01 -6.22280991729110e-01  7.12213292031677e-01  1.34239265409627e-03  1.06238958121056e-03
 2.94000000000000e+10  1.37947636894140e-03  1.05657338364749e-03 -6.09679256091698e-01  7.22954583794238e-01 -6.09679256091698e-01  7.22954583794238e-01  1.37947636894140e-03  1.05657338364749e-03
 2.94500000000000e+10  1.41632923646025e-03  1.04946338958481e-03 -5.96892197845917e-01  7.33472981509025e-01 -5.96892197845917e-01  7.33472981509025e-01  1.41632923646025e-03  1.04946338958481e-03
 2.95000000000000e+10  1.45290614063609e-03  1.04106863003063e-03 -5.83923758064408e-01  7.43765289236487e-01 -5.83923758064408e-01  7.43765289236487e-01  1.45290614063609e-03  1.04106863003063e-03
 2.95500000000000e+10  1.48916231469245e-03  1.03139970844008e-03 -5.70777932907130e-01  7.53828380697236e-01 -5.70777932907130e-01  7.53828380697236e-01  1.48916231469245e-03  1.03139970844008e-03
 2.96000000000000e+10  1.52505339587059e-03  1.02046878733763e-03 -5.57458772390425e-01  7.63659200220989e-01 -5.57458772390425e-01  7.63659200220989e-01  1.52505339587059e-03  1.02046878733763e-03
 2.96500000000000e+10  1.56053547969817e-03  1.00828957303092e-03 -5.43970379139792e-01  7.73254763673725e-01 -5.43970379139792e-01  7.73254763673725e-01  1.56053547969817e-03  1.00828957303092e-03
 2.97000000000000e+10  1.59556517368354e-03  9.94877298437939e-04 -5.30316907126667e-01  7.82612159362851e-01 -5.30316907126667e-01  7.82612159362851e-01  1.59556517368354e-03  9.94877298437939e-04
 2.97500000000000e+10  1.63009965036844e-03  9.80248704046372e-04 -5.16502560389705e-01  7.91728548920038e-01 -5.16502560389705e-01  7.91728548920038e-01  1.63009965036844e-03  9.80248704046372e-04
 2.98000000000000e+10  1.66409669967707e-03  9.64422017031365e-04 -5.02531591740846e-01  8.00601168161509e-01 -5.02531591740846e-01  8.00601168161509e-01  1.66409669967707e-03  9.64422017031365e-04
 2.98500000000000e+10  1.69751478049438e-03  9.47416928555836e-04 -4.88408301456663e-01  8.09227327925482e-01 -4.88408301456663e-01  8.09227327925482e-01  1.69751478049438e-03  9.47416928555836e-04
 2.99000000000000e+10  1.73031307141276e-03  9.29254569282565e-04 -4.74137035955322e-01  8.17604414886547e-01 -4.74137035955322e-01  8.17604414886547e-01  1.73031307141276e-03  9.29254569282565e-04
 2.99500000000000e+10  1.76245152058426e-03  9.09957483128334e-04 -4.59722186459578e-01  8.25729892346721e-01 -4.59722186459578e-01  8.25729892346721e-01  1.76245152058426e-03  9.09957483128334e-04
 3.00000000000000e+10  1.79389089461810e-03  8.89549599293116e-04 -4.45168187646286e-01  8.33601301002912e-01 -4.45168187646286e-01  8.33601301002912e-01  1.79389089461810e-03  8.89549599293116e-04
 3.00500000000000e+10  1.82459282646243e-03  8.68056202597342e-04 -4.30479516282701e-01  8.41216259690628e-01 -4.30479516282701e-01  8.41216259690628e-01  1.82459282646243e-03  8.68056202597342e-04
 3.01000000000000e+10  1.85451986221432e-03  8.45503902166735e-04 -4.15660689850146e-01  8.48572466103627e-01 -4.15660689850146e-01  8.48572466103627e-01  1.85451986221432e-03  8.45503902166735e-04
 3.01500000000000e+10  1.88363550679733e-03  8.21920598500503e-04 -4.00716265155342e-01  8.55667697489367e-01 -4.00716265155342e-01  8.55667697489367e-01  1.88363550679733e-03  8.21920598500503e-04
 3.02000000000000e+10  1.91190426845579e-03  7.97335448966495e-04 -3.85650836929915e-01  8.62499811319981e-01 -3.85650836929915e-01  8.62499811319981e-01  1.91190426845579e-03  7.97335448966495e-04
 3.02500000000000e+10  1.93929170200592e-03  7.71778831763210e-04 -3.70469036418439e-01  8.69066745938636e-01 -3.70469036418439e-01  8.69066745938636e-01  1.93929170200592e-03  7.71778831763210e-04
 3.03000000000000e+10  1.96576445079664e-03  7.45282308395876e-04 -3.55175529955523e-01  8.75366521181022e-01 -3.55175529955523e-01  8.75366521181022e-01  1.96576445079664e-03  7.45282308395876e-04
 3.03500000000000e+10  1.99129028732413e-03  7.17878584710231e-04 -3.39775017532302e-01  8.81397238971843e-01 -3.39775017532302e-01  8.81397238971843e-01  1.99129028732413e-03  7.17878584710231e-04
 3.04000000000000e+10  2.01583815245477e-03  6.89601470534836e-04 -3.24272231352843e-01  8.87157083896082e-01 -3.24272231352843e-01  8.87157083896082e-01  2.01583815245477e-03  6.89601470534836e-04
 3.04500000000000e+10  2.03937819320564e-03  6.60485837979431e-04 -3.08671934380834e-01  8.92644323744904e-01 -3.08671934380834e-01  8.92644323744904e-01  2.03937819320564e-03  6.60485837979431e-04
 3.05000000000000e+10  2.06188179903850e-03  6.30567578441917e-04 -2.92978918877102e-01  8.97857310036011e-01 -2.92978918877102e-01  8.97857310036011e-01  2.06188179903850e-03  6.30567578441917e-04
 3.05500000000000e+10  2.08332163662219e-03  5.99883558376798e-04 -2.77198004928271e-01  9.02794478508313e-01 -2.77198004928271e-01  9.02794478508313e-01  2.08332163662219e-03  5.99883558376798e-04
 3.06000000000000e+10  2.10367168302191e-03  5.68471573879425e-04 -2.61334038967170e-01  9.07454349590744e-01 -2.61334038967170e-01  9.07454349590744e-01  2.10367168302191e-03  5.68471573879425e-04
 3.06500000000000e+10  2.12290725727475e-03  5.36370304142142e-04 -2.45391892285295e-01  9.11835528845113e-01 -2.45391892285295e-01  9.11835528845113e-01  2.12290725727475e-03  5.36370304142142e-04
 3.07000000000000e+10  2.14100505031267e-03  5.03619263839218e-04 -2.29376459537897e-01  9.15936707382825e-01 -2.29376459537897e-01  9.15936707382825e-01  2.14100505031267e-03  5.03619263839218e-04
 3.07500000000000e+10  2.15794315319776e-03  4.70258754499740e-04 -2.13292657242078e-01  9.19756662255380e-01 -2.13292657242078e-01  9.19756662255380e-01  2.15794315319776e-03  4.70258754499740e-04
 3.08000000000000e+10  2.17370108363509e-03  4.36329814928023e-04 -1.97145422268395e-01  9.23294256818510e-01 -1.97145422268395e-01  9.23294256818510e-01  2.17370108363509e-03  4.36329814928023e-04
 3.08500000000000e+10  2.18825981072998e-03  4.01874170732270e-04 -1.80939710326426e-01  9.26548441069859e-01 -1.80939710326426e-01  9.26548441069859e-01  2.18825981072998e-03  4.01874170732270e-04
 3.09000000000000e+10  2.20160177796213e-03  3.66934183023954e-04 -1.64680494444732e-01  9.29518251960107e-01 -1.64680494444732e-01  9.29518251960107e-01  2.20160177796213e-03  3.66934183023954e-04
 3.09500000000000e+10  2.21371092434743e-03  3.31552796350985e-04 -1.48372763445742e-01  9.32202813677434e-01 -1.48372763445742e-01  9.32202813677434e-01  2.21371092434743e-03  3.31552796350985e-04
 3.10000000000000e+10  2.22457270376025e-03  2.95773485927701e-04 -1.32021520415958e-01  9.34601337905261e-01 -1.32021520415958e-01  9.34601337905261e-01  2.22457270376025e-03  2.95773485927701e-04
 3.10500000000000e+10  2.23417410239737e-03  2.59640204228288e-04 -1.15631781172011e-01  9.36713124053170e-01 -1.15631781172011e-01  9.36713124053170e-01  2.23417410239737e-03  2.59640204228288e-04
 3.11000000000000e+10  2.24250365435867e-03  2.23197327007282e-04 -9.92085727229716e-02  9.38537559460956e-01 -9.92085727229716e-02  9.38537559460956e-01  2.24250365435867e-03  2.23197327007282e-04
 3.11500000000000e+10  2.24955145532727e-03  1.86489598814891e-04 -8.27569317294688e-02  9.40074119575735e-01 -8.27569317294688e-02  9.40074119575735e-01  2.24955145532727e-03  1.86489598814891e-04
 3.12000000000000e+10  2.25530917433304e-03  1.49562078073062e-04 -6.62819029599808e-02  9.41322368102076e-01 -6.62819029599808e-02  9.41322368102076e-01  2.25530917433304e-03  1.49562078073062e-04
 3.12500000000000e+10  2.25977006358627e-03  1.12460081780417e-04 -4.97885377448938e-02  9.42281957125092e-01 -4.97885377448938e-02  9.42281957125092e-01  2.25977006358627e-03  1.12460081780417e-04
 3.13000000000000e+10  2.26292896636716e-03  7.52291299132059e-05 -3.32818924286768e-02  9.42952627206476e-01 -3.32818924286768e-02  9.42952627206476e-01  2.26292896636716e-03  7.52291299132059e-05
 3.13500000000000e+10  2.26478232296465e-03  3.79148895910791e-05 -1.67670268207620e-02  9.43334207453448e-01 -1.67670268207620e-02  9.43334207453448e-01  2.26478232296465e-03  3.79148895910791e-05
 3.14000000000000e+10  2.26532817465851e-03  5.63119075741323e-07 -2.49002645491033e-04  9.43426615560587e-01 -2.49002645491033e-04  9.43426615560587e-01  2.26532817465851e-03  5.63119075741323e-07
 3.14500000000000e+10  2.26456616573501e-03 -3.67803883286607e-05  1.62671180082786e-02  9.43229857824557e-01  1.62671180082786e-02  9.43229857824557e-01  2.26456616573501e-03 -3.67803883286607e-05
 3.15000000000000e+10  2.26249754354188e-03 -7.40698604048165e-05  3.27762742375688e-02  9.42744029131705e-01  3.27762742375688e-02  9.42744029131705e-01  2.26249754354188e-03 -7.40698604048165e-05
 3.15500000000000e+10  2.25912515657532e-03 -1.11259602112180e-04  4.92734078750624e-02  9.41969312918556e-01  4.92734078750624e-02  9.41969312918556e-01  2.25912515657532e-03 -1.11259602112180e-04
 3.16000000000000e+10  2.25445345060798e-03 -1.48304051569115e-04  6.57534650379206e-02  9.40905981105205e-01  6.57534650379206e-02  9.40905981105205e-01  2.25445345060798e-03 -1.48304051569115e-04
 3.16500000000000e+10  2.24848846285966e-03 -1.85157835858520e-04  8.22113976750823e-02  9.39554394001647e-01  8.22113976750823e-02  9.39554394001647e-01  2.24848846285966e-03 -1.85157835858520e-04
 3.17000000000000e+10  2.24123781421855e-03 -2.21775826588537e-04  9.86421651126031e-02  9.37915000187050e-01  9.86421651126031e-02  9.37915000187050e-01  2.24123781421855e-03 -2.21775826588537e-04
 3.17500000000000e+10  2.23271069952485e-03 -2.58113195140589e-04  1.15040735596576e-01  9.35988336362045e-01  1.15040735596576e-01  9.35988336362045e-01  2.23271069952485e-03 -2.58113195140589e-04
 3.18000000000000e+10  2.22291787592774e-03 -2.94125467536884e-04  1.31402087833119e-01  9.33775027174049e-01  1.31402087833119e-01  9.33775027174049e-01  2.22291787592774e-03 -2.94125467536884e-04
 3.18500000000000e+10  2.21187164932965e-03 -3.29768578860291e-04  1.47721212525025e-01  9.31275785015697e-01  1.47721212525025e-01  9.31275785015697e-01  2.21187164932965e-03 -3.29768578860291e-04
 3.19000000000000e+10  2.19958585893755e-03 -3.64998927160196e-04  1.63993113904513e-01  9.28491409796444e-01  1.63993113904513e-01  9.28491409796444e-01  2.19958585893755e-03 -3.64998927160196e-04
 3.19500000000000e+10  2.18607585993755e-03 -3.99773426778152e-04  1.80212811261734e-01  9.25422788687401e-01  1.80212811261734e-01  9.25422788687401e-01  2.18607585993755e-03 -3.99773426778152e-04
 3.20000000000000e+10  2.17135850431654e-03 -4.34049561028239e-04  1.96375340468420e-01  9.22070895839499e-01  1.96375340468420e-01  9.22070895839499e-01  2.17135850431654e-03 -4.34049561028239e-04
 3.20500000000000e+10  2.15545211985453e-03 -4.67785434167883e-04  2.12475755496369e-01  9.18436792075055e-01  2.12475755496369e-01  9.18436792075055e-01  2.15545211985453e-03 -4.67785434167883e-04
 3.21000000000000e+10  2.13837648731275e-03 -5.00939822595447e-04  2.28509129930149e-01  9.14521624552853e-01  2.28509129930149e-01  9.14521624552853e-01  2.13837648731275e-03 -5.00939822595447e-04
 3.21500000000000e+10  2.12015281584681e-03 -5.33472225211877e-04  2.44470558473690e-01  9.10326626406827e-01  2.44470558473690e-01  9.10326626406827e-01  2.12015281584681e-03 -5.33472225211877e-04
 3.22000000000000e+10  2.10080371667597e-03 -5.65342912885377e-04  2.60355158450198e-01  9.05853116358478e-01  2.60355158450198e-01  9.05853116358478e-01  2.10080371667597e-03 -5.65342912885377e-04
 3.22500000000000e+10  2.08035317503977e-03 -5.96512976958432e-04  2.76158071295033e-01  9.01102498303127e-01  2.76158071295033e-01  9.01102498303127e-01  2.08035317503977e-03 -5.96512976958432e-04
 3.23000000000000e+10  2.05882652047739e-03 -6.26944376737698e-04  2.91874464040980e-01  8.96076260870155e-01  2.91874464040980e-01  8.96076260870155e-01  2.05882652047739e-03 -6.26944376737698e-04
 3.23500000000000e+10  2.03625039546778e-03 -6.56599985909423e-04  3.07499530795600e-01  8.90775976957337e-01  3.07499530795600e-01  8.90775976957337e-01  2.03625039546778e-03 -6.56599985909423e-04
 3.24000000000000e+10  2.01265272246738e-03 -6.85443637823346e-04  3.23028494210060e-01  8.85203303239447e-01  3.23028494210060e-01  8.85203303239447e-01  2.01265272246738e-03 -6.85443637823346e-04
 3.24500000000000e+10  1.98806266938658e-03 -7.13440169589786e-04  3.38456606939127e-01  8.79359979651261e-01  3.38456606939127e-01  8.79359979651261e-01  1.98806266938658e-03 -7.13440169589786e-04
 3.25000000000000e+10  1.96251061354942e-03 -7.40555464936520e-04  3.53779153091779e-01  8.73247828845136e-01  3.53779153091779e-01  8.73247828845136e-01  1.96251061354942e-03 -7.40555464936520e-04
 3.25500000000000e+10  1.93602810417881e-03 -7.66756495773021e-04  3.68991449672051e-01  8.66868755623323e-01  3.68991449672051e-01  8.66868755623323e-01  1.93602810417881e-03 -7.66756495773021e-04
 3.26000000000000e+10  1.90864782345471e-03 -7.92011362411439e-04  3.84088848009681e-01  8.60224746345182e-01  3.84088848009681e-01  8.60224746345182e-01  1.90864782345471e-03 -7.92011362411439e-04
 3.26500000000000e+10  1.88040354619310e-03 -8.16289332395350e-04  3.99066735180031e-01  8.53317868309518e-01  3.99066735180031e-01  8.53317868309518e-01  1.88040354619310e-03 -8.16289332395350e-04
 3.27000000000000e+10  1.85133009819507e-03 -8.39560877888957e-04  4.13920535413000e-01  8.46150269112168e-01  4.13920535413000e-01  8.46150269112168e-01  1.85133009819507e-03 -8.39560877888957e-04
 3.27500000000000e+10  1.82146331331859e-03 -8.61797711581447e-04  4.28645711490337e-01  8.38724175979112e-01  4.28645711490337e-01  8.38724175979112e-01  1.82146331331859e-03 -8.61797711581447e-04
 3.28000000000000e+10  1.79083998932407e-03 -8.82972821062791e-04  4.43237766131066e-01  8.31041895075235e-01  4.43237766131066e-01  8.31041895075235e-01  1.79083998932407e-03 -8.82972821062791e-04
 3.28500000000000e+10  1.75949784254998e-03 -9.03060501629217e-04  4.57692243364486e-01  8.23105810789036e-01  4.57692243364486e-01  8.23105810789036e-01  1.75949784254998e-03 -9.03060501629217e-04
 3.29000000000000e+10  1.72747546147213e-03 -9.22036387477969e-04  4.72004729890444e-01  8.14918384993414e-01  4.72004729890444e-01  8.14918384993414e-01  1.72747546147213e-03 -9.22036387477969e-04
 3.29500000000000e+10  1.69481225920651e-03 -9.39877481254897e-04  4.86170856426322e-01  8.06482156282856e-01  4.86170856426322e-01  8.06482156282856e-01  1.69481225920651e-03 -9.39877481254897e-04
 3.30000000000000e+10  1.66154842501161e-03 -9.56562181917541e-04  5.00186299040492e-01  7.97799739187170e-01  5.00186299040492e-01  7.97799739187170e-01  1.66154842501161e-03 -9.56562181917541e-04
 3.30500000000000e+10  1.62772487485125e-03 -9.72070310880608e-04  5.14046780471678e-01  7.88873823362080e-01  5.14046780471678e-01  7.88873823362080e-01  1.62772487485125e-03 -9.72070310880608e-04
 3.31000000000000e+10  1.59338320107841e-03 -9.86383136412579e-04  5.27748071433941e-01  7.79707172756880e-01  5.27748071433941e-01  7.79707172756880e-01  1.59338320107841e-03 -9.86383136412579e-04
 3.31500000000000e+10  1.55856562130221e-03 -9.99483396253023e-04  5.41285991906801e-01  7.70302624759442e-01  5.41285991906801e-01  7.70302624759442e-01  1.55856562130221e-03 -9.99483396253023e-04
 3.32000000000000e+10  1.52331492649985e-03 -1.01135531842447e-03  5.54656412410184e-01  7.60663089318794e-01  5.54656412410184e-01  7.60663089318794e-01  1.52331492649985e-03 -1.01135531842447e-03
 3.32500000000000e+10  1.48767442843865e-03 -1.02198464021258e-03  5.67855255263715e-01  7.50791548045614e-01  5.67855255263715e-01  7.50791548045614e-01  1.48767442843865e-03 -1.02198464021258e-03
 3.33000000000000e+10  1.45168790647178e-03 -1.03135862529247e-03  5.80878495830063e-01  7.40691053290816e-01  5.80878495830063e-01  7.40691053290816e-01  1.45168790647178e-03 -1.03135862529247e-03
 3.33500000000000e+10  1.41539955377358e-03 -1.03946607898098e-03  5.93722163741880e-01  7.30364727202615e-01  5.93722163741880e-01  7.30364727202615e-01  1.41539955377358e-03 -1.03946607898098e-03
 3.34000000000000e+10  1.37885392307979e-03 -1.04629736159505e-03  6.06382344112029e-01  7.19815760762274e-01  6.06382344112029e-01  7.19815760762274e-01  1.37885392307979e-03 -1.04629736159505e-03
 3.34500000000000e+10  1.34209587200046e-03 -1.05184439990278e-03  6.18855178726668e-01  7.09047412798892e-01  6.18855178726668e-01  7.09047412798892e-01  1.34209587200046e-03 -1.05184439990278e-03
 3.35000000000000e+10  1.30517050797137e-03 -1.05610069665101e-03  6.31136867220868e-01  6.98063008983511e-01  6.31136867220868e-01  6.98063008983511e-01  1.30517050797137e-03 -1.05610069665101e-03
 3.35500000000000e+10  1.26812313291237e-03 -1.05906133815964e-03  6.43223668236413e-01  6.86865940802823e-01  6.43223668236413e-01  6.86865940802823e-01  1.26812313291237e-03 -1.05906133815964e-03
 3.36000000000000e+10  1.23099918766007e-03 -1.06072299997407e-03  6.55111900561369e-01  6.75459664512871e-01  6.55111900561369e-01  6.75459664512871e-01  1.23099918766007e-03 -1.06072299997407e-03
 3.36500000000000e+10  1.19384419624317e-03 -1.06108395056780e-03  6.66797944251163e-01  6.63847700072964e-01  6.66797944251163e-01  6.63847700072964e-01  1.19384419624317e-03 -1.06108395056780e-03
 3.37000000000000e+10  1.15670371006902e-03 -1.06014405309295e-03  6.78278241730736e-01  6.52033630060241e-01  6.78278241730736e-01  6.52033630060241e-01  1.15670371006902e-03 -1.06014405309295e-03
 3.37500000000000e+10  1.11962325208920e-03 -1.05790476517508e-03  6.89549298877529e-01  6.40021098565100e-01  6.89549298877529e-01  6.40021098565100e-01  1.11962325208920e-03 -1.05790476517508e-03
 3.38000000000000e+10  1.08264826101354e-03 -1.05436913675556e-03  7.00607686084870e-01  6.27813810067969e-01  7.00607686084870e-01  6.27813810067969e-01  1.08264826101354e-03 -1.05436913675556e-03
 3.38500000000000e+10  1.04582403563900e-03 -1.04954180598087e-03  7.11450039305542e-01  6.15415528297616e-01  7.11450039305542e-01  6.15415528297616e-01  1.04582403563900e-03 -1.04954180598087e-03
 3.39000000000000e+10  1.00919567936485e-03 -1.04342899314850e-03  7.22073061075123e-01  6.02830075071485e-01  7.22073061075123e-01  6.02830075071485e-01  1.00919567936485e-03 -1.04342899314850e-03
 3.39500000000000e+10  9.72808044958235e-04 -1.03603849271424e-03  7.32473521514853e-01  5.90061329118307e-01  7.32473521514853e-01  5.90061329118307e-01  9.72808044958235e-04 -1.03603849271424e-03
 3.40000000000000e+10  9.36705679640831e-04 -1.02737966337220e-03  7.42648259313667e-01  5.77113224883434e-01  7.42648259313667e-01  5.77113224883434e-01  9.36705679640831e-04 -1.02737966337220e-03
 3.40500000000000e+10  9.00932770562644e-04 -1.01746341622040e-03  7.52594182689159e-01  5.63989751317179e-01  7.52594182689159e-01  5.63989751317179e-01  9.00932770562644e-04 -1.01746341622040e-03
 3.41000000000000e+10  8.65533090728968e-04 -1.00630220102653e-03  7.62308270327100e-01  5.50694950646632e-01  7.62308270327100e-01  5.50694950646632e-01  8.65533090728968e-04 -1.00630220102653e-03
 3.41500000000000e+10  8.30549945448240e-04 -9.93909990611002e-04  7.71787572299320e-01  5.37232917131219e-01  7.71787572299320e-01  5.37232917131219e-01  8.30549945448240e-04 -9.93909990611002e-04
 3.42000000000000e+10  7.96026119364593e-04 -9.80302263367102e-04  7.81029210959587e-01  5.23607795802491e-01  7.81029210959587e-01  5.23607795802491e-01  7.96026119364593e-04 -9.80302263367102e-04
 3.42500000000000e+10  7.62003824141842e-04 -9.65495983940195e-04  7.90030381817264e-01  5.09823781188458e-01  7.90030381817264e-01  5.09823781188458e-01  7.62003824141842e-04 -9.65495983940195e-04
 3.43000000000000e+10  7.28524646860565e-04 -9.49509582089682e-04  7.98788354388467e-01  4.95885116022890e-01  7.98788354388467e-01  4.95885116022890e-01  7.28524646860565e-04 -9.49509582089682e-04
 3.43500000000000e+10  6.95629499193615e-04 -9.32362929760546e-04  8.07300473024440e-01  4.81796089939989e-01  8.07300473024440e-01  4.81796089939989e-01  6.95629499193615e-04 -9.32362929760546e-04
 3.44000000000000e+10  6.63358567420226e-04 -9.14077316392621e-04  8.15564157716937e-01  4.67561038154800e-01  8.15564157716937e-01  4.67561038154800e-01  6.63358567420226e-04 -9.14077316392621e-04
 3.44500000000000e+10  6.31751263341414e-04 -8.94675422498065e-04  8.23576904880328e-01  4.53184340129810e-01  8.23576904880328e-01  4.53184340129810e-01  6.31751263341414e-04 -8.94675422498065e-04
 3.45000000000000e+10  6.00846176155515e-04 -8.74181291540524e-04  8.31336288110211e-01  4.38670418228101e-01  8.31336288110211e-01  4.38670418228101e-01  6.00846176155515e-04 -8.74181291540524e-04
 3.45500000000000e+10  5.70681025352722e-04 -8.52620300150081e-04  8.38839958918284e-01  4.24023736353536e-01  8.38839958918284e-01  4.24023736353536e-01  5.70681025352722e-04 -8.52620300150081e-04
 3.46000000000000e+10  5.41292614687032e-04 -8.30019126711338e-04  8.46085647443290e-01  4.09248798578276e-01  8.46085647443290e-01  4.09248798578276e-01  5.41292614687032e-04 -8.30019126711338e-04
 3.46500000000000e+10  5.12716787280670e-04 -8.06405718363402e-04  8.53071163137754e-01  3.94350147758223e-01  8.53071163137754e-01  3.94350147758223e-01  5.12716787280670e-04 -8.06405718363402e-04
 3.47000000000000e+10  4.84988381916056e-04 -7.81809256452432e-04  8.59794395430379e-01  3.79332364136635e-01  8.59794395430379e-01  3.79332364136635e-01  4.84988381916056e-04 -7.81809256452432e-04
 3.47500000000000e+10  4.58141190569218e-04 -7.56260120479455e-04  8.66253314363830e-01  3.64200063936483e-01  8.66253314363830e-01  3.64200063936483e-01  4.58141190569218e-04 -7.56260120479455e-04
 3.48000000000000e+10  4.32207917235495e-04 -7.29789850588287e-04  8.72445971207771e-01  3.48957897941886e-01  8.72445971207771e-01  3.48957897941886e-01  4.32207917235495e-04 -7.29789850588287e-04
 3.48500000000000e+10  4.07220138098525e-04 -7.02431108639425e-04  8.78370499046917e-01  3.33610550069148e-01  8.78370499046917e-01  3.33610550069148e-01  4.07220138098525e-04 -7.02431108639425e-04
 3.49000000000000e+10  3.83208263090126e-04 -6.74217637918514e-04  8.84025113343979e-01  3.18162735927714e-01  8.84025113343979e-01  3.18162735927714e-01  3.83208263090126e-04 -6.74217637918514e-04
 3.49500000000000e+10  3.60201498889053e-04 -6.45184221528022e-04  8.89408112477263e-01  3.02619201371658e-01  8.89408112477263e-01  3.02619201371658e-01  3.60201498889053e-04 -6.45184221528022e-04
 3.50000000000000e+10  3.38227813402247e-04 -6.15366639514939e-04  8.94517878252831e-01  2.86984721041954e-01  8.94517878252831e-01  2.86984721041954e-01  3.38227813402247e-04 -6.15366639514939e-04
 3.50500000000000e+10  3.17313901773181e-04 -5.84801624785961e-04  8.99352876391015e-01  2.71264096900158e-01  8.99352876391015e-01  2.71264096900158e-01  3.17313901773181e-04 -5.84801624785961e-04
 3.51000000000000e+10  2.97485153957476e-04 -5.53526817865101e-04  9.03911656987165e-01  2.55462156753804e-01  9.03911656987165e-01  2.55462156753804e-01  2.97485153957476e-04 -5.53526817865101e-04
 3.51500000000000e+10  2.78765623905770e-04 -5.21580720549603e-04  9.08192854946481e-01  2.39583752774091e-01  9.08192854946481e-01  2.39583752774091e-01  2.78765623905770e-04 -5.21580720549603e-04
 3.52000000000000e+10  2.61178000390882e-04 -4.89002648520566e-04  9.12195190392805e-01  2.23633760006216e-01  9.12195190392805e-01  2.23633760006216e-01  2.61178000390882e-04 -4.89002648520566e-04
 3.52500000000000e+10  2.44743579515292e-04 -4.55832682967463e-04  9.15917469051244e-01  2.07617074872862e-01  9.15917469051244e-01  2.07617074872862e-01  2.44743579515292e-04 -4.55832682967463e-04
 3.53000000000000e+10  2.29482238931570e-04 -4.22111621284951e-04  9.19358582604506e-01  1.91538613671321e-01  9.19358582604506e-01  1.91538613671321e-01  2.29482238931570e-04 -4.22111621284951e-04
 3.53500000000000e+10  2.15412413806976e-04 -3.87880926903862e-04  9.22517509022858e-01  1.75403311064636e-01  9.22517509022858e-01  1.75403311064636e-01  2.15412413806976e-04 -3.87880926903862e-04
 3.54000000000000e+10  2.02551074561963e-04 -3.53182678317265e-04  9.25393312867580e-01  1.59216118567332e-01  9.25393312867580e-01  1.59216118567332e-01  2.02551074561963e-04 -3.53182678317265e-04
 3.54500000000000e+10  1.90913706408651e-04 -3.18059517364115e-04  9.27985145567861e-01  1.42982003026086e-01  9.27985145567861e-01  1.42982003026086e-01  1.90913706408651e-04 -3.18059517364115e-04
 3.55000000000000e+10  1.80514290714447e-04 -2.82554596834847e-04  9.30292245671008e-01  1.26705945095926e-01  9.30292245671008e-01  1.26705945095926e-01  1.80514290714447e-04 -2.82554596834847e-04
 3.55500000000000e+10  1.71365288213227e-04 -2.46711527462476e-04  9.32313939065951e-01  1.10392937712283e-01  9.32313939065951e-01  1.10392937712283e-01  1.71365288213227e-04 -2.46711527462476e-04
 3.56000000000000e+10  1.63477624083470e-04 -2.10574324364796e-04  9.34049639179913e-01  9.40479845595406e-02  9.34049639179913e-01  9.40479845595406e-02  1.63477624083470e-04 -2.10574324364796e-04
 3.56500000000000e+10  1.56860674912909e-04 -1.74187353003166e-04  9.35498847148250e-01  7.76760985363605e-02  9.35498847148250e-01  7.76760985363605e-02  1.56860674912909e-04 -1.74187353003166e-04
 3.57000000000000e+10  1.51522257563194e-04 -1.37595274724472e-04  9.36661151957366e-01  6.12823002184364e-02  9.36661151957366e-01  6.12823002184364e-02  1.51522257563194e-04 -1.37595274724472e-04
 3.57500000000000e+10  1.47468619949069e-04 -1.00842991952906e-04  9.37536230560681e-01  4.48716163189955e-02  9.37536230560681e-01  4.48716163189955e-02  1.47468619949069e-04 -1.00842991952906e-04
 3.58000000000000e+10  1.44704433742776e-04 -6.39755930989406e-05  9.38123847967622e-01  2.84490781476565e-02  9.38123847967622e-01  2.84490781476565e-02  1.44704433742776e-04 -6.39755930989406e-05
 3.58500000000000e+10  1.43232789011945e-04 -2.70382972529028e-05  9.38423857305603e-01  1.20197200679706e-02  9.38423857305603e-01  1.20197200679706e-02  1.43232789011945e-04 -2.70382972529028e-05
 3.59000000000000e+10  1.43055190796567e-04  9.92360126865327e-06  9.38436199854983e-01 -4.41142204570839e-03  9.38436199854983e-01 -4.41142204570839e-03  1.43055190796567e-04  9.92360126865327e-06
 3.59500000000000e+10  1.44171557630802e-04  4.68647884562590e-05  9.38160905056991e-01 -2.08393123517290e-02  9.38160905056991e-01 -2.08393123517290e-02  1.44171557630802e-04  4.68647884562590e-05
 3.60000000000000e+10  1.46580222007565e-04  8.37399861520229e-05  9.37598090494628e-01 -3.72589165843996e-02  9.37598090494628e-01 -3.72589165843996e-02  1.46580222007565e-04  8.37399861520229e-05
 3.60500000000000e+10  1.50277932789523e-04  1.20504007537520e-04  9.36747961846539e-01 -5.36652035966342e-02  9.36747961846539e-01 -5.36652035966342e-02  1.50277932789523e-04  1.20504007537520e-04
 3.61000000000000e+10  1.55259859557443e-04  1.57111812496857e-04  9.35610812813889e-01 -7.00531469014228e-02  9.35610812813889e-01 -7.00531469014228e-02  1.55259859557443e-04  1.57111812496857e-04
 3.61500000000000e+10  1.61519598895825e-04  1.93518562787248e-04  9.34187025020254e-01 -8.64177262117275e-02  9.34187025020254e-01 -8.64177262117275e-02  1.61519598895825e-04  1.93518562787248e-04
 3.62000000000000e+10  1.69049182603125e-04  2.29679676949595e-04  9.32477067884568e-01 -1.02753928978303e-01  9.32477067884568e-01 -1.02753928978303e-01  1.69049182603125e-04  2.29679676949595e-04
 3.62500000000000e+10  1.77839087819317e-04  2.65550884891411e-04  9.30481498467178e-01 -1.19056751924929e-01  9.30481498467178e-01 -1.19056751924929e-01  1.77839087819317e-04  2.65550884891411e-04
 3.63000000000000e+10  1.87878249055276e-04  3.01088282075933e-04  9.28200961289030e-01 -1.35321202580681e-01  9.28200961289030e-01 -1.35321202580681e-01  1.87878249055276e-04  3.01088282075933e-04
 3.63500000000000e+10  1.99154072111213e-04  3.36248383250345e-04  9.25636188124078e-01 -1.51542300808639e-01  9.25636188124078e-01 -1.51542300808639e-01  1.99154072111213e-04  3.36248383250345e-04
 3.64000000000000e+10  2.11652449864968e-04  3.70988175648182e-04  9.22787997764955e-01 -1.67715080330721e-01  9.22787997764955e-01 -1.67715080330721e-01  2.11652449864968e-04  3.70988175648182e-04
 3.64500000000000e+10  2.25357779910408e-04  4.05265171600075e-04  9.19657295762002e-01 -1.83834590247995e-01  9.19657295762002e-01 -1.83834590247995e-01  2.25357779910408e-04  4.05265171600075e-04
 3.65000000000000e+10  2.40252984026155e-04  4.39037460488838e-04  9.16245074135720e-01 -1.99895896556182e-01  9.16245074135720e-01 -1.99895896556182e-01  2.40252984026155e-04  4.39037460488838e-04
 3.65500000000000e+10  2.56319529446433e-04  4.72263759985619e-04  9.12552411062763e-01 -2.15894083655738e-01  9.12552411062763e-01 -2.15894083655738e-01  2.56319529446433e-04  4.72263759985619e-04
 3.66000000000000e+10  2.73537451911531e-04  5.04903466503906e-04  9.08580470535528e-01 -2.31824255856164e-01  9.08580470535528e-01 -2.31824255856164e-01  2.73537451911531e-04  5.04903466503906e-04
 3.66500000000000e+10  2.91885380466521e-04  5.36916704810200e-04  9.04330501995510e-01 -2.47681538873974e-01  9.04330501995510e-01 -2.47681538873974e-01  2.91885380466521e-04  5.36916704810200e-04
 3.67000000000000e+10  3.11340563978495e-04  5.68264376730640e-04  8.99803839940474e-01 -2.63461081324004e-01  8.99803839940474e-01 -2.63461081324004e-01  3.11340563978495e-04  5.68264376730640e-04
 3.67500000000000e+10  3.31878899339627e-04  5.98908208893771e-04  8.95001903505624e-01 -2.79158056203426e-01  8.95001903505624e-01 -2.79158056203426e-01  3.31878899339627e-04  5.98908208893771e-04
 3.68000000000000e+10  3.53474961320194e-04  6.28810799452044e-04  8.89926196018855e-01 -2.94767662368201e-01  8.89926196018855e-01 -2.94767662368201e-01  3.53474961320194e-04  6.28810799452044e-04
 3.68500000000000e+10  3.76102034035804e-04  6.57935663723354e-04  8.84578304530269e-01 -3.10285126001350e-01  8.84578304530269e-01 -3.10285126001350e-01  3.76102034035804e-04  6.57935663723354e-04
 3.69000000000000e+10  3.99732143988503e-04  6.86247278699426e-04  8.78959899316063e-01 -3.25705702072731e-01  8.78959899316063e-01 -3.25705702072731e-01  3.99732143988503e-04  6.86247278699426e-04
 3.69500000000000e+10  4.24336094642647e-04  7.13711126363640e-04  8.73072733356984e-01 -3.41024675789769e-01  8.73072733356984e-01 -3.41024675789769e-01  4.24336094642647e-04  7.13711126363640e-04
 3.70000000000000e+10  4.49883502490543e-04  7.40293735768826e-04  8.66918641791478e-01 -3.56237364038770e-01  8.66918641791478e-01 -3.56237364038770e-01  4.49883502490543e-04  7.40293735768826e-04
 3.70500000000000e+10  4.76342834565837e-04  7.65962723820831e-04  8.60499541343736e-01 -3.71339116816335e-01  8.60499541343736e-01 -3.71339116816335e-01  4.76342834565837e-04  7.65962723820831e-04
 3.71000000000000e+10  5.03681447356163e-04  7.90686834719934e-04  8.53817429726789e-01 -3.86325318650451e-01  8.53817429726789e-01 -3.86325318650451e-01  5.03681447356163e-04  7.90686834719934e-04
 3.71500000000000e+10  5.31865627068363e-04  8.14435978011591e-04  8.46874385020862e-01 -4.01191390010828e-01  8.46874385020862e-01 -4.01191390010828e-01  5.31865627068363e-04  8.14435978011591e-04
 3.72000000000000e+10  5.60860631196233e-04  8.37181265200143e-04  8.39672565027165e-01 -4.15932788708033e-01  8.39672565027165e-01 -4.15932788708033e-01  5.60860631196233e-04  8.37181265200143e-04
 3.72500000000000e+10  5.90630731339140e-04  8.58895044880589e-04  8.32214206597327e-01 -4.30545011281032e-01  8.32214206597327e-01 -4.30545011281032e-01  5.90630731339140e-04  8.58895044880589e-04
 3.73000000000000e+10  6.21139257219957e-04  8.79550936346787e-04  8.24501624938691e-01 -4.45023594372646e-01  8.24501624938691e-01 -4.45023594372646e-01  6.21139257219957e-04  8.79550936346787e-04
 3.73500000000000e+10  6.52348641846192e-04  8.99123861633938e-04  8.16537212895667e-01 -4.59364116092608e-01  8.16537212895667e-01 -4.59364116092608e-01  6.52348641846192e-04  8.99123861633938e-04
 3.74000000000000e+10  6.84220467760449e-04  9.17590075957389e-04  8.08323440207395e-01 -4.73562197367669e-01  8.08323440207395e-01 -4.73562197367669e-01  6.84220467760449e-04  9.17590075957389e-04
 3.74500000000000e+10  7.16715514322708e-04  9.34927196510292e-04  7.99862852741913e-01 -4.87613503278485e-01  7.99862852741913e-01 -4.87613503278485e-01  7.16715514322708e-04  9.34927196510292e-04
 3.75000000000000e+10  7.49793805965626e-04  9.51114229585471e-04  7.91158071707120e-01 -5.01513744382728e-01  7.91158071707120e-01 -5.01513744382728e-01  7.49793805965626e-04  9.51114229585471e-04
 3.75500000000000e+10  7.83414661364369e-04  9.66131595988590e-04  7.82211792838700e-01 -5.15258678024188e-01  7.82211792838700e-01 -5.15258678024188e-01  7.83414661364369e-04  9.66131595988590e-04
 3.76000000000000e+10  8.17536743459995e-04  9.79961154712070e-04  7.73026785565368e-01 -5.28844109627271e-01  7.73026785565368e-01 -5.28844109627271e-01  8.17536743459995e-04  9.79961154712070e-04
 3.76500000000000e+10  8.52118110275148e-04  9.92586224840424e-04  7.63605892151577e-01 -5.42265893976694e-01  7.63605892151577e-01 -5.42265893976694e-01  8.52118110275148e-04  9.92586224840424e-04
 3.77000000000000e+10  8.87116266459491e-04  1.00399160566133e-03  7.53952026818064e-01 -5.55519936481817e-01  7.53952026818064e-01 -5.55519936481817e-01  8.87116266459491e-04  1.00399160566133e-03
 3.77500000000000e+10  9.22488215501285e-04  1.01416359495829e-03  7.44068174840409e-01 -5.68602194425363e-01  7.44068174840409e-01 -5.68602194425363e-01  9.22488215501285e-04  1.01416359495829e-03
 3.78000000000000e+10  9.58190512541183e-04  1.02309000546176e-03  7.33957391625985e-01 -5.81508678196031e-01  7.33957391625985e-01 -5.81508678196031e-01  9.58190512541183e-04  1.02309000546176e-03
 3.78500000000000e+10  9.94179317724430e-04  1.03076017944053e-03  7.23622801769477e-01 -5.94235452504744e-01  7.23622801769477e-01 -5.94235452504744e-01  9.94179317724430e-04  1.03076017944053e-03
 3.79000000000000e+10  1.03041045002306e-03  1.03716500141491e-03  7.13067598087374e-01 -6.06778637584025e-01  7.13067598087374e-01 -6.06778637584025e-01  1.03041045002306e-03  1.03716500141491e-03
 3.79500000000000e+10  1.06683944146592e-03  1.04229690897674e-03  7.02295040631643e-01 -6.19134410370279e-01  7.02295040631643e-01 -6.19134410370279e-01  1.06683944146592e-03  1.04229690897674e-03
 3.80000000000000e+10  1.10342159170614e-03  1.04614990170339e-03  6.91308455682935e-01 -6.31299005668507e-01  6.91308455682935e-01 -6.31299005668507e-01  1.10342159170614e-03  1.04614990170339e-03
 3.80500000000000e+10  1.14011202286239e-03  1.04871954815552e-03  6.80111234723642e-01 -6.43268717299156e-01  6.80111234723642e-01 -6.43268717299156e-01  1.14011202286239e-03  1.04871954815552e-03
 3.81000000000000e+10  1.17686573456426e-03  1.05000299095066e-03  6.68706833391075e-01 -6.55039899226755e-01  6.68706833391075e-01 -6.55039899226755e-01  1.17686573456426e-03  1.05000299095066e-03
 3.81500000000000e+10  1.21363765913549e-03  1.04999894990572e-03  6.57098770411164e-01 -6.66608966669952e-01  6.57098770411164e-01 -6.66608966669952e-01  1.21363765913549e-03  1.04999894990572e-03
 3.82000000000000e+10  1.25038271684690e-03  1.04870772324634e-03  6.45290626512907e-01 -6.77972397192688e-01  6.45290626512907e-01 -6.77972397192688e-01  1.25038271684690e-03  1.04870772324634e-03
 3.82500000000000e+10  1.28705587117164e-03  1.04613118688140e-03  6.33286043324022e-01 -6.89126731776087e-01  6.33286043324022e-01 -6.89126731776087e-01  1.28705587117164e-03  1.04613118688140e-03
 3.83000000000000e+10  1.32361218397479e-03  1.04227279174395e-03  6.21088722248028e-01 -7.00068575870826e-01  6.21088722248028e-01 -7.00068575870826e-01  1.32361218397479e-03  1.04227279174395e-03
 3.83500000000000e+10  1.36000687056951e-03  1.03713755920249e-03  6.08702423323198e-01 -7.10794600429582e-01  6.08702423323198e-01 -7.10794600429582e-01  1.36000687056951e-03  1.03713755920249e-03
 3.84000000000000e+10  1.39619535457324e-03  1.03073207454898e-03  5.96130964063661e-01 -7.21301542919323e-01  5.96130964063661e-01 -7.21301542919323e-01  1.39619535457324e-03  1.03073207454898e-03
 3.84500000000000e+10  1.43213332249509e-03  1.02306447857085e-03  5.83378218283079e-01 -7.31586208313057e-01  5.83378218283079e-01 -7.31586208313057e-01  1.43213332249509e-03  1.02306447857085e-03
 3.85000000000000e+10  1.46777677798933e-03  1.01414445721935e-03  5.70448114901176e-01 -7.41645470060827e-01  5.70448114901176e-01 -7.41645470060827e-01  1.46777677798933e-03  1.01414445721935e-03
 3.85500000000000e+10  1.50308209570749e-03  1.00398322938604e-03  5.57344636733603e-01 -7.51476271039547e-01  5.57344636733603e-01 -7.51476271039547e-01  1.50308209570749e-03  1.00398322938604e-03
 3.86000000000000e+10  1.53800607468374e-03  9.92593532803513e-04  5.44071819265386e-01 -7.61075624481515e-01  5.44071819265386e-01 -7.61075624481515e-01  1.53800607468374e-03  9.92593532803513e-04
 3.86500000000000e+10  1.57250599118755e-03  9.79989608088067e-04  5.30633749408430e-01 -7.70440614881220e-01  5.30633749408430e-01 -7.70440614881220e-01  1.57250599118755e-03  9.79989608088067e-04
 3.87000000000000e+10  1.60653965097991e-03  9.66187180943734e-04  5.17034564243422e-01 -7.79568398880224e-01  5.17034564243422e-01 -7.79568398880224e-01  1.60653965097991e-03  9.66187180943734e-04
 3.87500000000000e+10  1.64006544090826e-03  9.51203442550524e-04  5.03278449746521e-01 -7.88456206129832e-01  5.03278449746521e-01 -7.88456206129832e-01  1.64006544090826e-03  9.51203442550524e-04
 3.88000000000000e+10  1.67304237977780e-03  9.35057028161352e-04  4.89369639501230e-01 -7.97101340131301e-01  4.89369639501230e-01 -7.97101340131301e-01  1.67304237977780e-03  9.35057028161352e-04
 3.88500000000000e+10  1.70543016843678e-03  9.17767993933261e-04  4.75312413395856e-01 -8.05501179053322e-01  4.75312413395856e-01 -8.05501179053322e-01  1.70543016843678e-03  9.17767993933261e-04
 3.89000000000000e+10  1.73718923901408e-03  8.99357792023655e-04  4.61111096306946e-01 -8.13653176526528e-01  4.61111096306946e-01 -8.13653176526528e-01  1.73718923901408e-03  8.99357792023655e-04
 3.89500000000000e+10  1.76828080325000e-03  8.79849243980066e-04  4.46770056769107e-01 -8.21554862414810e-01  4.46770056769107e-01 -8.21554862414810e-01  1.76828080325000e-03  8.79849243980066e-04
 3.90000000000000e+10  1.79866689986004e-03  8.59266512458990e-04  4.32293705631638e-01 -8.29203843563167e-01  4.32293705631638e-01 -8.29203843563167e-01  1.79866689986004e-03  8.59266512458990e-04
 3.90500000000000e+10  1.82831044087435e-03  8.37635071306120e-04  4.17686494702332e-01 -8.36597804521922e-01  4.17686494702332e-01 -8.36597804521922e-01  1.82831044087435e-03  8.37635071306120e-04
 3.91000000000000e+10  1.85717525689719e-03  8.14981674037815e-04  4.02952915378953e-01 -8.43734508247021e-01  4.02952915378953e-01 -8.43734508247021e-01  1.85717525689719e-03  8.14981674037815e-04
 3.91500000000000e+10  1.88522614122949e-03  7.91334320760524e-04  3.88097497268710e-01 -8.50611796776265e-01  3.88097497268710e-01 -8.50611796776265e-01  1.88522614122949e-03  7.91334320760524e-04
 3.92000000000000e+10  1.91242889280173e-03  7.66722223570354e-04  3.73124806796240e-01 -8.57227591881217e-01  3.73124806796240e-01 -8.57227591881217e-01  1.91242889280173e-03  7.66722223570354e-04
 3.92500000000000e+10  1.93875035786491e-03  7.41175770474808e-04  3.58039445800454e-01 -8.63579895694644e-01  3.58039445800454e-01 -8.63579895694644e-01  1.93875035786491e-03  7.41175770474808e-04
 3.93000000000000e+10  1.96415847038859e-03  7.14726487882192e-04  3.42846050120752e-01 -8.69666791313243e-01  3.42846050120752e-01 -8.69666791313243e-01  1.96415847038859e-03  7.14726487882192e-04
 3.93500000000000e+10  1.98862229111631e-03  6.87407001703524e-04  3.27549288172931e-01 -8.75486443375543e-01  3.27549288172931e-01 -8.75486443375543e-01  1.98862229111631e-03  6.87407001703524e-04
 3.94000000000000e+10  2.01211204523108e-03  6.59250997116297e-04  3.12153859515386e-01 -8.81037098614725e-01  3.12153859515386e-01 -8.81037098614725e-01  2.01211204523108e-03  6.59250997116297e-04
 3.94500000000000e+10  2.03459915858628e-03  6.30293177039097e-04  2.96664493405851e-01 -8.86317086386283e-01  2.96664493405851e-01 -8.86317086386283e-01  2.03459915858628e-03  6.30293177039097e-04
 3.95000000000000e+10  2.05605629245627e-03  6.00569219368379e-04  2.81085947349299e-01 -8.91324819170293e-01  2.81085947349299e-01 -8.91324819170293e-01  2.05605629245627e-03  6.00569219368379e-04
 3.95500000000000e+10  2.07645737676434e-03  5.70115733029644e-04  2.65423005637310e-01 -8.96058793048189e-01  2.65423005637310e-01 -8.96058793048189e-01  2.07645737676434e-03  5.70115733029644e-04
 3.96000000000000e+10  2.09577764174983e-03  5.38970212898058e-04  2.49680477879465e-01 -9.00517588153879e-01  2.49680477879465e-01 -9.00517588153879e-01  2.09577764174983e-03  5.38970212898058e-04
 3.96500000000000e+10  2.11399364803335e-03  5.07170993643110e-04  2.33863197527110e-01 -9.04699869099078e-01  2.33863197527110e-01 -9.04699869099078e-01  2.11399364803335e-03  5.07170993643110e-04
 3.97000000000000e+10  2.13108331504584e-03  4.74757202554783e-04  2.17976020390039e-01 -9.08604385372724e-01  2.17976020390039e-01 -9.08604385372724e-01  2.13108331504584e-03  4.74757202554783e-04
 3.97500000000000e+10  2.14702594778424e-03  4.41768711408516e-04  2.02023823146486e-01 -9.12229971714367e-01  2.02023823146486e-01 -9.12229971714367e-01  2.14702594778424e-03  4.41768711408516e-04
 3.98000000000000e+10  2.16180226186522e-03  4.08246087429176e-04  1.86011501846901e-01 -9.15575548461408e-01  1.86011501846901e-01 -9.15575548461408e-01  2.16180226186522e-03  4.08246087429176e-04
 3.98500000000000e+10  2.17539440684250e-03  3.74230543413310e-04  1.69943970411998e-01 -9.18640121870096e-01  1.69943970411998e-01 -9.18640121870096e-01  2.17539440684250e-03  3.74230543413310e-04
 3.99000000000000e+10  2.18778598776322e-03  3.39763887071820e-04  1.53826159125459e-01 -9.21422784410189e-01  1.53826159125459e-01 -9.21422784410189e-01  2.18778598776322e-03  3.39763887071820e-04
 3.99500000000000e+10  2.19896208493461e-03  3.04888469654679e-04  1.37663013121865e-01 -9.23922715033174e-01  1.37663013121865e-01 -9.23922715033174e-01  2.19896208493461e-03  3.04888469654679e-04
 4.00000000000000e+10  2.20890927187857e-03  2.69647133921150e-04  1.21459490870193e-01 -9.26139179414003e-01  1.21459490870193e-01 -9.26139179414003e-01  2.20890927187857e-03  2.69647133921150e-04
 4.00500000000000e+10  2.21761563145214e-03  2.34083161519416e-04  1.05220562653460e-01 -9.28071530166228e-01  1.05220562653460e-01 -9.28071530166228e-01  2.21761563145214e-03  2.34083161519416e-04
 4.01000000000000e+10  2.22507077011506e-03  1.98240219840001e-04  8.89512090448814e-02 -9.29719207030519e-01  8.89512090448814e-02 -9.29719207030519e-01  2.22507077011506e-03  1.98240219840001e-04
 4.01500000000000e+10  2.23126583032614e-03  1.62162308408570e-04  7.26564193810942e-02 -9.31081737036471e-01  7.26564193810942e-02 -9.31081737036471e-01  2.23126583032614e-03  1.62162308408570e-04
 4.02000000000000e+10  2.23619350105510e-03  1.25893704883485e-04  5.63411902328246e-02 -9.32158734637685e-01  5.63411902328246e-02 -9.32158734637685e-01  2.23619350105510e-03  1.25893704883485e-04
 4.02500000000000e+10  2.23984802639610e-03  8.94789107248077e-05  4.00105238735706e-02 -9.32949901820061e-01  4.00105238735706e-02 -9.32949901820061e-01  2.23984802639610e-03  8.94789107248077e-05
 4.03000000000000e+10  2.24222521227436e-03  5.29625966010495e-05  2.36694267466519e-02 -9.33455028183295e-01  2.36694267466519e-02 -9.33455028183295e-01  2.24222521227436e-03  5.29625966010495e-05
 4.03500000000000e+10  2.24332243123593e-03  1.63895476008385e-05  7.32290793119994e-03 -9.33673990995529e-01  7.32290793119994e-03 -9.33673990995529e-01  2.24332243123593e-03  1.63895476008385e-05
 4.04000000000000e+10  2.24313862531792e-03 -2.01953916833812e-05 -9.02402239251118e-03 -9.33606755221182e-01 -9.02402239251118e-03 -9.33606755221182e-01  2.24313862531792e-03 -2.01953916833812e-05
 4.04500000000000e+10  2.24167430699366e-03 -5.67473721322952e-05 -2.53663544778755e-02 -9.33253373521905e-01 -2.53663544778755e-02 -9.33253373521905e-01  2.24167430699366e-03 -5.67473721322952e-05
 4.05000000000000e+10  2.23893155819268e-03 -9.32215950700072e-05 -4.16990805465174e-02 -9.32613986230717e-01 -4.16990805465174e-02 -9.32613986230717e-01  2.23893155819268e-03 -9.32215950700072e-05
 4.05500000000000e+10  2.23491402739895e-03 -1.29573367160102e-04 -5.80171963219994e-02 -9.31688821299281e-01 -5.80171963219994e-02 -9.31688821299281e-01  2.23491402739895e-03 -1.29573367160102e-04
 4.06000000000000e+10  2.22962692482771e-03 -1.65758155160424e-04 -7.43157025623706e-02 -9.30478194218389e-01 -7.43157025623706e-02 -9.30478194218389e-01  2.22962692482771e-03 -1.65758155160424e-04
 4.06500000000000e+10  2.22307701569228e-03 -2.01731640469551e-04 -9.05896065909647e-02 -9.28982507911630e-01 -9.05896065909647e-02 -9.28982507911630e-01  2.22307701569228e-03 -2.01731640469551e-04
 4.07000000000000e+10  2.21527261156346e-03 -2.37449773397806e-04 -1.06833923825015e-01 -9.27202252602336e-01 -1.06833923825015e-01 -9.27202252602336e-01  2.21527261156346e-03 -2.37449773397806e-04
 4.07500000000000e+10  2.20622355983809e-03 -2.72868827096859e-04 -1.23043679301668e-01 -9.25138005653787e-01 -1.23043679301668e-01 -9.25138005653787e-01  2.20622355983809e-03 -2.72868827096859e-04
 4.08000000000000e+10  2.19594123132715e-03 -3.07945451081582e-04 -1.39213909200828e-01 -9.22790431382781e-01 -1.39213909200828e-01 -9.22790431382781e-01  2.19594123132715e-03 -3.07945451081582e-04
 4.08500000000000e+10  2.18443850597867e-03 -3.42636724278690e-04 -1.55339662364499e-01 -9.20160280846591e-01 -1.55339662364499e-01 -9.20160280846591e-01  2.18443850597867e-03 -3.42636724278690e-04
 4.09000000000000e+10  2.17172975675532e-03 -3.76900207537362e-04 -1.71416001812017e-01 -9.17248391603397e-01 -1.71416001812017e-01 -9.17248391603397e-01  2.17172975675532e-03 -3.76900207537362e-04
 4.09500000000000e+10  2.15783083168586e-03 -4.10693995537764e-04 -1.87438006250846e-01 -9.14055687446261e-01 -1.87438006250846e-01 -9.14055687446261e-01  2.15783083168586e-03 -4.10693995537764e-04
 4.10000000000000e+10  2.14275903411181e-03 -4.43976768033305e-04 -2.03400771582350e-01 -9.10583178110733e-01 -2.03400771582350e-01 -9.10583178110733e-01  2.14275903411181e-03 -4.43976768033305e-04
 4.10500000000000e+10  2.12653310115619e-03 -4.76707840365220e-04 -2.19299412402211e-01 -9.06831958956166e-01 -2.19299412402211e-01 -9.06831958956166e-01  2.12653310115619e-03 -4.76707840365220e-04
 4.11000000000000e+10  2.10917318043885e-03 -5.08847213186236e-04 -2.35129063494892e-01 -9.02803210620873e-01 -2.35129063494892e-01 -9.02803210620873e-01  2.10917318043885e-03 -5.08847213186236e-04
 4.11500000000000e+10  2.09070080506877e-03 -5.40355621333893e-04 -2.50884881321840e-01 -8.98498198651186e-01 -2.50884881321840e-01 -8.98498198651186e-01  2.09070080506877e-03 -5.40355621333893e-04
 4.12000000000000e+10  2.07113886694402e-03 -5.71194581793001e-04 -2.66562045502834e-01 -8.93918273104580e-01 -2.66562045502834e-01 -8.93918273104580e-01  2.07113886694402e-03 -5.71194581793001e-04
 4.12500000000000e+10  2.05051158839203e-03 -6.01326440689087e-04 -2.82155760290137e-01 -8.89064868126951e-01 -2.82155760290137e-01 -8.89064868126951e-01  2.05051158839203e-03 -6.01326440689087e-04
 4.13000000000000e+10  2.02884449218588e-03 -6.30714419254887e-04 -2.97661256034922e-01 -8.83939501504199e-01 -2.97661256034922e-01 -8.83939501504199e-01  2.02884449218588e-03 -6.30714419254887e-04
 4.13500000000000e+10  2.00616436997319e-03 -6.59322658714690e-04 -3.13073790645583e-01 -8.78543774188247e-01 -3.13073790645583e-01 -8.78543774188247e-01  2.00616436997319e-03 -6.59322658714690e-04
 4.14000000000000e+10  1.98249924915685e-03 -6.87116264030888e-04 -3.28388651037440e-01 -8.72879369797646e-01 -3.28388651037440e-01 -8.72879369797646e-01  1.98249924915685e-03 -6.87116264030888e-04
 4.14500000000000e+10  1.95787835826950e-03 -7.14061346459999e-04 -3.43601154573435e-01 -8.66948054092919e-01 -3.43601154573435e-01 -8.66948054092919e-01  1.95787835826950e-03 -7.14061346459999e-04
 4.15000000000000e+10  1.93233209088205e-03 -7.40125064865813e-04 -3.58706650495342e-01 -8.60751674426807e-01 -3.58706650495342e-01 -8.60751674426807e-01  1.93233209088205e-03 -7.40125064865813e-04
 4.15500000000000e+10  1.90589196809314e-03 -7.65275665739402e-04 -3.73700521345089e-01 -8.54292159169590e-01 -3.73700521345089e-01 -8.54292159169590e-01  1.90589196809314e-03 -7.65275665739402e-04
 4.16000000000000e+10  1.87859059964557e-03 -7.89482521877809e-04 -3.88578184375727e-01 -8.47571517109658e-01 -3.88578184375727e-01 -8.47571517109658e-01  1.87859059964557e-03 -7.89482521877809e-04
 4.16500000000000e+10  1.85046164371579e-03 -8.12716169673300e-04 -4.03335092951638e-01 -8.40591836829513e-01 -4.03335092951638e-01 -8.40591836829513e-01  1.85046164371579e-03 -8.12716169673300e-04
 4.17000000000000e+10  1.82153976542831e-03 -8.34948344968638e-04 -4.17966737937554e-01 -8.33355286057403e-01 -4.17966737937554e-01 -8.33355286057403e-01  1.82153976542831e-03 -8.34948344968638e-04
 4.17500000000000e+10  1.79186059414494e-03 -8.56152017434451e-04 -4.32468649075922e-01 -8.25864110994792e-01 -4.32468649075922e-01 -8.25864110994792e-01  1.79186059414494e-03 -8.56152017434451e-04
 4.18000000000000e+10  1.76146067958111e-03 -8.76301423426562e-04 -4.46836396352286e-01 -8.18120635619847e-01 -4.46836396352286e-01 -8.18120635619847e-01  1.76146067958111e-03 -8.76301423426562e-04
 4.18500000000000e+10  1.73037744680503e-03 -8.95372097284375e-04 -4.61065591348147e-01 -8.10127260967197e-01 -4.61065591348147e-01 -8.10127260967197e-01  1.73037744680503e-03 -8.95372097284375e-04
 4.19000000000000e+10  1.69864915017246e-03 -9.13340901030308e-04 -4.75151888581006e-01 -8.01886464384148e-01 -4.75151888581006e-01 -8.01886464384148e-01  1.69864915017246e-03 -9.13340901030308e-04
 4.19500000000000e+10  1.66631482625603e-03 -9.30186052436971e-04 -4.89090986831081e-01 -7.93400798763617e-01 -4.89090986831081e-01 -7.93400798763617e-01  1.66631482625603e-03 -9.30186052436971e-04
 4.20000000000000e+10  1.63341424582707e-03 -9.45887151425776e-04 -5.02878630454392e-01 -7.84672891753983e-01 -5.02878630454392e-01 -7.84672891753983e-01  1.63341424582707e-03 -9.45887151425776e-04
 4.20500000000000e+10  1.59998786494598e-03 -9.60425204765624e-04 -5.16510610681699e-01 -7.75705444946149e-01 -5.16510610681699e-01 -7.75705444946149e-01  1.59998786494598e-03 -9.60425204765624e-04
 4.21000000000000e+10  1.56607677522544e-03 -9.73782649042386e-04 -5.29982766903021e-01 -7.66501233038000e-01 -5.29982766903021e-01 -7.66501233038000e-01  1.56607677522544e-03 -9.73782649042386e-04
 4.21500000000000e+10  1.53172265332480e-03 -9.85943371871088e-04 -5.43290987937221e-01 -7.57063102976592e-01 -5.43290987937221e-01 -7.57063102976592e-01  1.53172265332480e-03 -9.85943371871088e-04
 4.22000000000000e+10  1.49696770973817e-03 -9.96892731324407e-04 -5.56431213286386e-01 -7.47393973078257e-01 -5.56431213286386e-01 -7.47393973078257e-01  1.49696770973817e-03 -9.96892731324407e-04
 4.22500000000000e+10  1.46185463694019e-03 -1.00661757355496e-03 -5.69399434374509e-01 -7.37496832126964e-01 -5.69399434374509e-01 -7.37496832126964e-01  1.46185463694019e-03 -1.00661757355496e-03
 4.23000000000000e+10  1.42642655695195e-03 -1.01510624859060e-03 -5.82191695770194e-01 -7.27374738451157e-01 -5.82191695770194e-01 -7.27374738451157e-01  1.42642655695195e-03 -1.01510624859060e-03
 4.23500000000000e+10  1.39072696839209e-03 -1.02234862428198e-03 -5.94804096392939e-01 -7.17030818979392e-01 -5.94804096392939e-01 -7.17030818979392e-01  1.39072696839209e-03 -1.02234862428198e-03
 4.24000000000000e+10  1.35479969307758e-03 -1.02833609838738e-03 -6.07232790702661e-01 -7.06468268275055e-01 -6.07232790702661e-01 -7.06468268275055e-01  1.35479969307758e-03 -1.02833609838738e-03
 4.24500000000000e+10  1.31868882224100e-03 -1.03306160878013e-03 -6.19473989872096e-01 -6.95690347550444e-01 -6.19473989872096e-01 -6.95690347550444e-01  1.31868882224100e-03 -1.03306160878013e-03
 4.25000000000000e+10  1.28243866242826e-03 -1.03651964176548e-03 -6.31523962941709e-01 -6.84700383660531e-01 -6.31523962941709e-01 -6.84700383660531e-01  1.28243866242826e-03 -1.03651964176548e-03
 4.25500000000000e+10  1.24609368114474e-03 -1.03870623849810e-03 -6.43379037956782e-01 -6.73501768076710e-01 -6.43379037956782e-01 -6.73501768076710e-01  1.24609368114474e-03 -1.03870623849810e-03
 4.26000000000000e+10  1.20969845231622e-03 -1.03961899949267e-03 -6.55035603086285e-01 -6.62097955840862e-01 -6.55035603086285e-01 -6.62097955840862e-01  1.20969845231622e-03 -1.03961899949267e-03
 4.26500000000000e+10  1.17329760163123e-03 -1.03925708722258e-03 -6.66490107723268e-01 -6.50492464500008e-01 -6.66490107723268e-01 -6.50492464500008e-01  1.17329760163123e-03 -1.03925708722258e-03
 4.27000000000000e+10  1.13693575183127e-03 -1.03762122680267e-03 -6.77739063566343e-01 -6.38688873021960e-01 -6.77739063566343e-01 -6.38688873021960e-01  1.13693575183127e-03 -1.03762122680267e-03
 4.27500000000000e+10  1.10065746801767e-03 -1.03471370475765e-03 -6.88779045682010e-01 -6.26690820692213e-01 -6.88779045682010e-01 -6.26690820692213e-01  1.10065746801767e-03 -1.03471370475765e-03
 4.28000000000000e+10  1.06450720303992e-03 -1.03053836587611e-03 -6.99606693547445e-01 -6.14502005992500e-01 -6.99606693547445e-01 -6.14502005992500e-01  1.06450720303992e-03 -1.03053836587611e-03
 4.28500000000000e+10  1.02852924303454e-03 -1.02510060815653e-03 -7.10218712073471e-01 -6.02126185461275e-01 -7.10218712073471e-01 -6.02126185461275e-01  1.02852924303454e-03 -1.02510060815653e-03
 4.29000000000000e+10  9.92767653179200e-04 -1.01840737584937e-03 -7.20611872607359e-01 -5.89567172536566e-01 -7.20611872607359e-01 -5.89567172536566e-01  9.92767653179200e-04 -1.01840737584937e-03
 4.29500000000000e+10  9.57266223730321e-04 -1.01046715060641e-03 -7.30783013915210e-01 -5.76828836381442e-01 -7.30783013915210e-01 -5.76828836381442e-01  9.57266223730321e-04 -1.01046715060641e-03
 4.30000000000000e+10  9.22068416408528e-04 -1.00128994074738e-03 -7.40729043143549e-01 -5.63915100692580e-01 -7.40729043143549e-01 -5.63915100692580e-01  9.22068416408528e-04 -1.00128994074738e-03
 4.30500000000000e+10  8.87217311199632e-04 -9.90887268657820e-04 -7.50446936759902e-01 -5.50829942492178e-01 -7.50446936759902e-01 -5.50829942492178e-01  8.87217311199632e-04 -9.90887268657820e-04
 4.31000000000000e+10  8.52755553633670e-04 -9.79272156333822e-04 -7.59933741472023e-01 -5.37577390903683e-01 -7.59933741472023e-01 -5.37577390903683e-01  8.52755553633670e-04 -9.79272156333822e-04
 4.31500000000000e+10  8.18725302609285e-04 -9.66459109091981e-04 -7.69186575125521e-01 -5.24161525911643e-01 -7.69186575125521e-01 -5.24161525911643e-01  8.18725302609285e-04 -9.66459109091981e-04
 4.32000000000000e+10  7.85168178824928e-04 -9.52464097465184e-04 -7.78202627579583e-01 -5.10586477106111e-01 -7.78202627579583e-01 -5.10586477106111e-01  7.85168178824928e-04 -9.52464097465184e-04
 4.32500000000000e+10  7.52125213881509e-04 -9.37304537305777e-04 -7.86979161560568e-01 -4.96856422411948e-01 -7.86979161560568e-01 -4.96856422411948e-01  7.52125213881509e-04 -9.37304537305777e-04
 4.33000000000000e+10  7.19636800117849e-04 -9.20999268122022e-04 -7.95513513493165e-01 -4.82975586803442e-01 -7.95513513493165e-01 -4.82975586803442e-01  7.19636800117849e-04 -9.20999268122022e-04
 4.33500000000000e+10  6.87742641240884e-04 -9.03568529674354e-04 -8.03803094308895e-01 -4.68948241004640e-01 -8.03803094308895e-01 -4.68948241004640e-01  6.87742641240884e-04 -9.03568529674354e-04
 4.34000000000000e+10  6.56481703810360e-04 -8.85033936860377e-04 -8.11845390231705e-01 -4.54778700175758e-01 -8.11845390231705e-01 -4.54778700175758e-01  6.56481703810360e-04 -8.85033936860377e-04
 4.34500000000000e+10  6.25892169637795e-04 -8.65418452919602e-04 -8.19637963540386e-01 -4.40471322586138e-01 -8.19637963540386e-01 -4.40471322586138e-01  6.25892169637795e-04 -8.65418452919602e-04
 4.35000000000000e+10  5.96011389157638e-04 -8.44746360991899e-04 -8.27178453307642e-01 -4.26030508274063e-01 -8.27178453307642e-01 -4.26030508274063e-01  5.96011389157638e-04 -8.44746360991899e-04
 4.35500000000000e+10  5.66875835827504e-04 -8.23043234063864e-04 -8.34464576115513e-01 -4.11460697693961e-01 -8.34464576115513e-01 -4.11460697693961e-01  5.66875835827504e-04 -8.23043234063864e-04
 4.36000000000000e+10  5.38521061613320e-04 -8.00335903340994e-04 -8.41494126746997e-01 -3.96766370351299e-01 -8.41494126746997e-01 -3.96766370351299e-01  5.38521061613320e-04 -8.00335903340994e-04
 4.36500000000000e+10  5.10981653613454e-04 -7.76652425084807e-04 -8.48264978853618e-01 -3.81952043425680e-01 -8.48264978853618e-01 -3.81952043425680e-01  5.10981653613454e-04 -7.76652425084807e-04
 4.37000000000000e+10  4.84291191875189e-04 -7.52022045954742e-04 -8.54775085598764e-01 -3.67022270382488e-01 -8.54775085598764e-01 -3.67022270382488e-01  4.84291191875189e-04 -7.52022045954742e-04
 4.37500000000000e+10  4.58482208454624e-04 -7.26475166899757e-04 -8.61022480276573e-01 -3.51981639573592e-01 -8.61022480276573e-01 -3.51981639573592e-01  4.58482208454624e-04 -7.26475166899757e-04
 4.38000000000000e+10  4.33586147769663e-04 -7.00043305641991e-04 -8.67005276906219e-01 -3.36834772827432e-01 -8.67005276906219e-01 -3.36834772827432e-01  4.33586147769663e-04 -7.00043305641991e-04
 4.38500000000000e+10  4.09633328295337e-04 -6.72759057800346e-04 -8.72721670801363e-01 -3.21586324029047e-01 -8.72721670801363e-01 -3.21586324029047e-01  4.09633328295337e-04 -6.72759057800346e-04
 4.39000000000000e+10  3.86652905647103e-04 -6.44656056700809e-04 -8.78169939114650e-01 -3.06240977690357e-01 -8.78169939114650e-01 -3.06240977690357e-01  3.86652905647103e-04 -6.44656056700809e-04
 4.39500000000000e+10  3.64672837097619e-04 -6.15768931924250e-04 -8.83348441357050e-01 -2.90803447511247e-01 -8.83348441357050e-01 -2.90803447511247e-01  3.64672837097619e-04 -6.15768931924250e-04
 4.40000000000000e+10  3.43719847570261e-04 -5.86133266641424e-04 -8.88255619891906e-01 -2.75278474931800e-01 -8.88255619891906e-01 -2.75278474931800e-01  3.43719847570261e-04 -5.86133266641424e-04
 4.40500000000000e+10  3.23819397149849e-04 -5.55785553788996e-04 -8.92890000403520e-01 -2.59670827676215e-01 -8.92890000403520e-01 -2.59670827676215e-01  3.23819397149849e-04 -5.55785553788996e-04
 4.41000000000000e+10  3.04995650151966e-04 -5.24763151139581e-04 -8.97250192340164e-01 -2.43985298288769e-01 -8.97250192340164e-01 -2.43985298288769e-01  3.04995650151966e-04 -5.24763151139581e-04
 4.41500000000000e+10  2.87271445786002e-04 -4.93104235321899e-04 -9.01334889331351e-01 -2.28226702662348e-01 -9.01334889331351e-01 -2.28226702662348e-01  2.87271445786002e-04 -4.93104235321899e-04
 4.42000000000000e+10  2.70668270449476e-04 -4.60847754846752e-04 -9.05142869579259e-01 -2.12399878559958e-01 -9.05142869579259e-01 -2.12399878559958e-01  2.70668270449476e-04 -4.60847754846752e-04
 4.42500000000000e+10  2.55206231686558e-04 -4.28033382197561e-04 -9.08672996224193e-01 -1.96509684129664e-01 -9.08672996224193e-01 -1.96509684129664e-01  2.55206231686558e-04 -4.28033382197561e-04
 4.43000000000000e+10  2.40904033842317e-04 -3.94701465043734e-04 -9.11924217683948e-01 -1.80560996413474e-01 -9.11924217683948e-01 -1.80560996413474e-01  2.40904033842317e-04 -3.94701465043734e-04
 4.43500000000000e+10  2.27778955441506e-04 -3.60892976636967e-04 -9.14895567967017e-01 -1.64558709850506e-01 -9.14895567967017e-01 -1.64558709850506e-01  2.27778955441506e-04 -3.60892976636967e-04
 4.44000000000000e+10  2.15846828321135e-04 -3.26649465451833e-04 -9.17586166959497e-01 -1.48507734775081e-01 -9.17586166959497e-01 -1.48507734775081e-01  2.15846828321135e-04 -3.26649465451833e-04
 4.44500000000000e+10  2.05122018539819e-04 -2.92013004131867e-04 -9.19995220685656e-01 -1.32412995909972e-01 -9.19995220685656e-01 -1.32412995909972e-01  2.05122018539819e-04 -2.92013004131867e-04
 4.45000000000000e+10  1.95617409088542e-04 -2.57026137804688e-04 -9.22122021542047e-01 -1.16279430855522e-01 -9.22122021542047e-01 -1.16279430855522e-01  1.95617409088542e-04 -2.57026137804688e-04
 4.45500000000000e+10  1.87344384422589e-04 -2.21731831828771e-04 -9.23965948505119e-01 -1.00111988574852e-01 -9.23965948505119e-01 -1.00111988574852e-01  1.87344384422589e-04 -2.21731831828771e-04
 4.46000000000000e+10  1.80312816833846e-04 -1.86173419037032e-04 -9.25526467312262e-01 -8.39156278758590e-02 -9.25526467312262e-01 -8.39156278758590e-02  1.80312816833846e-04 -1.86173419037032e-04
 4.46500000000000e+10  1.74531054679696e-04 -1.50394546540928e-04 -9.26803130616225e-01 -6.76953158902297e-02 -9.26803130616225e-01 -6.76953158902297e-02  1.74531054679696e-04 -1.50394546540928e-04
 4.47000000000000e+10  1.70005912482438e-04 -1.14439122161282e-04 -9.27795578112866e-01 -5.14560265501966e-02 -9.27795578112866e-01 -5.14560265501966e-02  1.70005912482438e-04 -1.14439122161282e-04
 4.47500000000000e+10  1.66742662909941e-04 -7.83512605510634e-05 -9.28503536642205e-01 -3.52027390632397e-02 -9.28503536642205e-01 -3.52027390632397e-02  1.66742662909941e-04 -7.83512605510634e-05
 4.48000000000000e+10  1.64745030649952e-04 -4.21752290763676e-05 -9.28926820262740e-01 -1.89404363854350e-02 -9.28926820262740e-01 -1.89404363854350e-02  1.64745030649952e-04 -4.21752290763676e-05
 4.48500000000000e+10  1.64015188181212e-04 -5.95539352198419e-06 -9.29065330299007e-01 -2.67410369374269e-03 -9.29065330299007e-01 -2.67410369374269e-03  1.64015188181212e-04 -5.95539352198419e-06
 4.49000000000000e+10  1.64553753449054e-04  3.02638363117451e-05 -9.28919055362389e-01  1.35912731421584e-02 -9.28919055362389e-01  1.35912731421584e-02  1.64553753449054e-04  3.02638363117451e-05
 4.49500000000000e+10  1.66359789446539e-04  6.64380610543802e-05 -9.28488071345143e-01  2.98507090881539e-02 -9.28488071345143e-01  2.98507090881539e-02  1.66359789446539e-04  6.64380610543802e-05
 4.50000000000000e+10  1.69430805702273e-04  1.02522946186004e-04 -9.27772541387672e-01  4.60992214734859e-02 -9.27772541387672e-01  4.60992214734859e-02  1.69430805702273e-04  1.02522946186004e-04
 4.50500000000000e+10  1.73762761671172e-04  1.38474276366670e-04 -9.26772715819046e-01  6.23318315177175e-02 -9.26772715819046e-01  6.23318315177175e-02  1.73762761671172e-04  1.38474276366670e-04
 4.51000000000000e+10  1.79350072025562e-04  1.74248009607775e-04 -9.25488932070798e-01  7.85435658562822e-02 -9.25488932070798e-01  7.85435658562822e-02  1.79350072025562e-04  1.74248009607775e-04
 4.51500000000000e+10  1.86185613837169e-04  2.09800331219329e-04 -9.23921614564006e-01  9.47294580642579e-02 -9.23921614564006e-01  9.47294580642579e-02  1.86185613837169e-04  2.09800331219329e-04
 4.52000000000000e+10  1.94260735643541e-04  2.45087707466754e-04 -9.22071274569737e-01  1.10884550177805e-01 -9.22071274569737e-01  1.10884550177805e-01  1.94260735643541e-04  2.45087707466754e-04
 4.52500000000000e+10  2.03565268385529e-04  2.80066938871714e-04 -9.19938510042851e-01  1.27003894212860e-01 -9.19938510042851e-01  1.27003894212860e-01  2.03565268385529e-04  2.80066938871714e-04
 4.53000000000000e+10  2.14087538202800e-04  3.14695213091434e-04 -9.17524005429264e-01  1.43082553680606e-01 -9.17524005429264e-01  1.43082553680606e-01  2.14087538202800e-04  3.14695213091434e-04
 4.53500000000000e+10  2.25814381070404e-04  3.48930157312257e-04 -9.14828531446696e-01  1.59115605099240e-01 -9.14828531446696e-01  1.59115605099240e-01  2.25814381070404e-04  3.48930157312257e-04
 4.54000000000000e+10  2.38731159259660e-04  3.82729890092954e-04 -9.11852944838999e-01  1.75098139501586e-01 -9.11852944838999e-01  1.75098139501586e-01  2.38731159259660e-04  3.82729890092954e-04
 4.54500000000000e+10  2.52821779601174e-04  4.16053072594165e-04 -9.08598188104130e-01  1.91025263938091e-01 -9.08598188104130e-01  1.91025263938091e-01  2.52821779601174e-04  4.16053072594165e-04
 4.55000000000000e+10  2.68068713527756e-04  4.48858959132150e-04 -9.05065289195867e-01  2.06892102974744e-01 -9.05065289195867e-01  2.06892102974744e-01  2.68068713527756e-04  4.48858959132150e-04
 4.55500000000000e+10  2.84453018873391e-04  4.81107446993836e-04 -9.01255361199351e-01  2.22693800185426e-01 -9.01255361199351e-01  2.22693800185426e-01  2.84453018873391e-04  4.81107446993836e-04
 4.56000000000000e+10  3.01954363398562e-04  5.12759125453596e-04 -8.97169601980554e-01  2.38425519638339e-01 -8.97169601980554e-01  2.38425519638339e-01  3.01954363398562e-04  5.12759125453596e-04
 4.56500000000000e+10  3.20551050015907e-04  5.43775323930457e-04 -8.92809293809816e-01  2.54082447375868e-01 -8.92809293809816e-01  2.54082447375868e-01  3.20551050015907e-04  5.43775323930457e-04
 4.57000000000000e+10  3.40220043682419e-04  5.74118159228210e-04 -8.88175802959517e-01  2.69659792887653e-01 -8.88175802959517e-01  2.69659792887653e-01  3.40220043682419e-04  5.74118159228210e-04
 4.57500000000000e+10  3.60936999925640e-04  6.03750581799552e-04 -8.83270579276060e-01  2.85152790576214e-01 -8.83270579276060e-01  2.85152790576214e-01  3.60936999925640e-04  6.03750581799552e-04
 4.58000000000000e+10  3.82676294969331e-04  6.32636420978990e-04 -8.78095155726271e-01  3.00556701214825e-01 -8.78095155726271e-01  3.00556701214825e-01  3.82676294969331e-04  6.32636420978990e-04
 4.58500000000000e+10  4.05411057420259e-04  6.60740429127855e-04 -8.72651147918370e-01  3.15866813397107e-01 -8.72651147918370e-01  3.15866813397107e-01  4.05411057420259e-04  6.60740429127855e-04
 4.59000000000000e+10  4.29113201477251e-04  6.88028324638877e-04 -8.66940253597653e-01  3.31078444977931e-01 -8.66940253597653e-01  3.31078444977931e-01  4.29113201477251e-04  6.88028324638877e-04
 4.59500000000000e+10  4.53753461621619e-04  7.14466833747130e-04 -8.60964252117063e-01  3.46186944505190e-01 -8.60964252117063e-01  3.46186944505190e-01  4.53753461621619e-04  7.14466833747130e-04
 4.60000000000000e+10  4.79301428746335e-04  7.40023731096443e-04 -8.54725003882791e-01  3.61187692641981e-01 -8.54725003882791e-01  3.61187692641981e-01  4.79301428746335e-04  7.40023731096443e-04
 4.60500000000000e+10  5.05725587678541e-04  7.64667879012123e-04 -8.48224449775100e-01  3.76076103578785e-01 -8.48224449775100e-01  3.76076103578785e-01  5.05725587678541e-04  7.64667879012123e-04
 4.61000000000000e+10  5.32993356050092e-04  7.88369265431610e-04 -8.41464610544542e-01  3.90847626435202e-01 -8.41464610544542e-01  3.90847626435202e-01  5.32993356050092e-04  7.88369265431610e-04
 4.61500000000000e+10  5.61071124467320e-04  8.11099040447505e-04 -8.34447586183763e-01  4.05497746650811e-01 -8.34447586183763e-01  4.05497746650811e-01  5.61071124467320e-04  8.11099040447505e-04
 4.62000000000000e+10  5.89924297931460e-04  8.32829551417953e-04 -8.27175555275093e-01  4.20021987364734e-01 -8.27175555275093e-01  4.20021987364734e-01  5.89924297931460e-04  8.32829551417953e-04
 4.62500000000000e+10  6.19517338457226e-04  8.53534376601988e-04 -8.19650774314104e-01  4.34415910783480e-01 -8.19650774314104e-01  4.34415910783480e-01  6.19517338457226e-04  8.53534376601988e-04
 4.63000000000000e+10  6.49813808839068e-04  8.73188357278599e-04 -8.11875577009396e-01  4.48675119536641e-01 -8.11875577009396e-01  4.48675119536641e-01  6.49813808839068e-04  8.73188357278599e-04
 4.63500000000000e+10  6.80776417509108e-04  8.91767628311118e-04 -8.03852373558760e-01  4.62795258020067e-01 -8.03852373558760e-01  4.62795258020067e-01  6.80776417509108e-04  8.91767628311118e-04
 4.64000000000000e+10  7.12367064433080e-04  9.09249647118769e-04 -7.95583649902009e-01  4.76772013726040e-01 -7.95583649902009e-01  4.76772013726040e-01  7.12367064433080e-04  9.09249647118769e-04
 4.64500000000000e+10  7.44546887987031e-04  9.25613221021617e-04 -7.87071966950666e-01  4.90601118560106e-01 -7.87071966950666e-01  4.90601118560106e-01  7.44546887987031e-04  9.25613221021617e-04
 4.65000000000000e+10  7.77276312757314e-04  9.40838532924138e-04 -7.78319959794773e-01  5.04278350144124e-01 -7.78319959794773e-01  5.04278350144124e-01  7.77276312757314e-04  9.40838532924138e-04
 4.65500000000000e+10  8.10515098205116e-04  9.54907165307720e-04 -7.69330336887050e-01  5.17799533105154e-01 -7.69330336887050e-01  5.17799533105154e-01  8.10515098205116e-04  9.54907165307720e-04
 4.66000000000000e+10  8.44222388135761e-04  9.67802122502271e-04 -7.60105879204667e-01  5.31160540349782e-01 -7.60105879204667e-01  5.31160540349782e-01  8.44222388135761e-04  9.67802122502271e-04
 4.66500000000000e+10  8.78356760911451e-04  9.79507851210229e-04 -7.50649439388905e-01  5.44357294323482e-01 -7.50649439388905e-01  5.44357294323482e-01  8.78356760911451e-04  9.79507851210229e-04
 4.67000000000000e+10  9.12876280346634e-04  9.90010259258074e-04 -7.40963940862913e-01  5.57385768254680e-01 -7.40963940862913e-01  5.57385768254680e-01  9.12876280346634e-04  9.90010259258074e-04
 4.67500000000000e+10  9.47738547222563e-04  9.99296732552954e-04 -7.31052376927944e-01  5.70241987383047e-01 -7.31052376927944e-01  5.70241987383047e-01  9.47738547222563e-04  9.99296732552954e-04
 4.68000000000000e+10  9.82900751358932e-04  1.00735615022427e-03 -7.20917809838207e-01  5.82922030171775e-01 -7.20917809838207e-01  5.82922030171775e-01  9.82900751358932e-04  1.00735615022427e-03
 4.68500000000000e+10  1.01831972417644e-03  1.01417889793081e-03 -7.10563369854772e-01  5.95422029503318e-01 -7.10563369854772e-01  5.95422029503318e-01  1.01831972417644e-03  1.01417889793081e-03
 4.69000000000000e+10  1.05395199168923e-03  1.01975687931948e-03 -6.99992254278693e-01  6.07738173858388e-01 -6.99992254278693e-01  6.07738173858388e-01  1.05395199168923e-03  1.01975687931948e-03
 4.69500000000000e+10  1.08975382785788e-03  1.02408352562014e-03 -6.89207726463731e-01  6.19866708477714e-01 -6.89207726463731e-01  6.19866708477714e-01  1.08975382785788e-03  1.02408352562014e-03
 4.70000000000000e+10  1.12568130824202e-03  1.02715380336694e-03 -6.78213114808950e-01  6.31803936506298e-01 -6.78213114808950e-01  6.31803936506298e-01  1.12568130824202e-03  1.02715380336694e-03
 4.70500000000000e+10  1.16169036388262e-03  1.02896422023487e-03 -6.67011811731497e-01  6.43546220119775e-01 -6.67011811731497e-01  6.43546220119775e-01  1.16169036388262e-03  1.02896422023487e-03
 4.71000000000000e+10  1.19773683535076e-03  1.02951282898722e-03 -6.55607272619895e-01  6.55089981632559e-01 -6.55607272619895e-01  6.55089981632559e-01  1.19773683535076e-03  1.02951282898722e-03
 4.71500000000000e+10  1.23377652689489e-03  1.02879922952777e-03 -6.44003014768171e-01  6.66431704587415e-01 -6.44003014768171e-01  6.66431704587415e-01  1.23377652689489e-03  1.02879922952777e-03
 4.72000000000000e+10  1.26976526062170e-03  1.02682456905682e-03 -6.32202616291130e-01  6.77567934826155e-01 -6.32202616291130e-01  6.77567934826155e-01  1.26976526062170e-03  1.02682456905682e-03
 4.72500000000000e+10  1.30565893064230e-03  1.02359154032973e-03 -6.20209715021137e-01  6.88495281541105e-01 -6.20209715021137e-01  6.88495281541105e-01  1.30565893064230e-03  1.02359154032973e-03
 4.73000000000000e+10  1.34141355711932e-03  1.01910437802245e-03 -6.08028007386732e-01  6.99210418307037e-01 -6.08028007386732e-01  6.99210418307037e-01  1.34141355711932e-03  1.01910437802245e-03
 4.73500000000000e+10  1.37698534014702e-03  1.01336885320718e-03 -5.95661247273428e-01  7.09710084093252e-01 -5.95661247273428e-01  7.09710084093252e-01  1.37698534014702e-03  1.01336885320718e-03
 4.74000000000000e+10  1.41233071339983e-03  1.00639226594715e-03 -5.83113244867041e-01  7.19991084255509e-01 -5.83113244867041e-01  7.19991084255509e-01  1.41233071339983e-03  1.00639226594715e-03
 4.74500000000000e+10  1.44740639748235e-03  9.98183436017436e-04 -5.70387865479915e-01  7.30050291507493e-01 -5.70387865479915e-01  7.30050291507493e-01  1.44740639748235e-03  9.98183436017436e-04
 4.75000000000000e+10  1.48216945291668e-03  9.88752691766325e-04 -5.57489028360391e-01  7.39884646871528e-01 -5.57489028360391e-01  7.39884646871528e-01  1.48216945291668e-03  9.88752691766325e-04
 4.75500000000000e+10  1.51657733270115e-03  9.78111857129807e-04 -5.44420705485910e-01  7.49491160608259e-01 -5.44420705485910e-01  7.49491160608259e-01  1.51657733270115e-03  9.78111857129807e-04
 4.76000000000000e+10  1.55058793437715e-03  9.66274236815756e-04 -5.31186920340094e-01  7.58866913124998e-01 -5.31186920340094e-01  7.58866913124998e-01  1.55058793437715e-03  9.66274236815756e-04
 4.76500000000000e+10  1.58415965153881e-03  9.53254599675863e-04 -5.17791746674199e-01  7.68009055862489e-01 -5.17791746674199e-01  7.68009055862489e-01  1.58415965153881e-03  9.53254599675863e-04
 4.77000000000000e+10  1.61725142472514e-03  9.39069160287543e-04 -5.04239307253337e-01  7.76914812159788e-01 -5.04239307253337e-01  7.76914812159788e-01  1.61725142472514e-03  9.39069160287543e-04
 4.77500000000000e+10  1.64982279162909e-03  9.23735558767215e-04 -4.90533772587797e-01  7.85581478097041e-01 -4.90533772587797e-01  7.85581478097041e-01  1.64982279162909e-03  9.23735558767215e-04
 4.78000000000000e+10  1.68183393656493e-03  9.07272838840952e-04 -4.76679359649925e-01  7.94006423315859e-01 -4.76679359649925e-01  7.94006423315859e-01  1.68183393656493e-03  9.07272838840952e-04
 4.78500000000000e+10  1.71324573913223e-03  8.89701424199354e-04 -4.62680330576914e-01  8.02187091817070e-01 -4.62680330576914e-01  8.02187091817070e-01  1.71324573913223e-03  8.89701424199354e-04
 4.79000000000000e+10  1.74401982201653e-03  8.71043093166415e-04 -4.48540991359910e-01  8.10121002735607e-01 -4.48540991359910e-01  8.10121002735607e-01  1.74401982201653e-03  8.71043093166415e-04
 4.79500000000000e+10  1.77411859786995e-03  8.51320951713450e-04 -4.34265690519849e-01  8.17805751092282e-01 -4.34265690519849e-01  8.17805751092282e-01  1.77411859786995e-03  8.51320951713450e-04
 4.80000000000000e+10  1.80350531521225e-03  8.30559404851569e-04 -4.19858817770434e-01  8.25239008522230e-01 -4.19858817770434e-01  8.25239008522230e-01  1.80350531521225e-03  8.30559404851569e-04
 4.80500000000000e+10  1.83214410329836e-03  8.08784126438055e-04 -4.05324802668610e-01  8.32418523979821e-01 -4.05324802668610e-01  8.32418523979821e-01  1.83214410329836e-03  8.08784126438055e-04
 4.81000000000000e+10  1.86000001589676e-03  7.86022027434484e-04 -3.90668113253072e-01  8.39342124419767e-01 -3.90668113253072e-01  8.39342124419767e-01  1.86000001589676e-03  7.86022027434484e-04
 4.81500000000000e+10  1.88703907392484e-03  7.62301222655053e-04 -3.75893254671054e-01  8.46007715454318e-01 -3.75893254671054e-01  8.46007715454318e-01  1.88703907392484e-03  7.62301222655053e-04
 4.82000000000000e+10  1.91322830688945e-03  7.37650996046665e-04 -3.61004767794014e-01  8.52413281986232e-01 -3.61004767794014e-01  8.52413281986232e-01  1.91322830688945e-03  7.37650996046665e-04
 4.82500000000000e+10  1.93853579308345e-03  7.12101764543650e-04 -3.46007227822441e-01  8.58556888817442e-01 -3.46007227822441e-01  8.58556888817442e-01  1.93853579308345e-03  7.12101764543650e-04
 4.83000000000000e+10  1.96293069848683e-03  6.85685040541700e-04 -3.30905242880406e-01  8.64436681233141e-01 -3.30905242880406e-01  8.64436681233141e-01  1.96293069848683e-03  6.85685040541700e-04
 4.83500000000000e+10  1.98638331432771e-03  6.58433393036898e-04 -3.15703452600103e-01  8.70050885561189e-01 -3.15703452600103e-01  8.70050885561189e-01  1.98638331432771e-03  6.58433393036898e-04
 4.84000000000000e+10  2.00886509325484e-03  6.30380407478755e-04 -3.00406526696997e-01  8.75397809706605e-01 -3.00406526696997e-01  8.75397809706605e-01  2.00886509325484e-03  6.30380407478755e-04
 4.84500000000000e+10  2.03034868407914e-03  6.01560644385092e-04 -2.85019163535840e-01  8.80475843661041e-01 -2.85019163535840e-01  8.80475843661041e-01  2.03034868407914e-03  6.01560644385092e-04
 4.85000000000000e+10  2.05080796504272e-03  5.72009596771781e-04 -2.69546088688136e-01  8.85283459987051e-01 -2.69546088688136e-01  8.85283459987051e-01  2.05080796504272e-03  5.72009596771781e-04
 4.85500000000000e+10  2.07021807557242e-03  5.41763646447960e-04 -2.53992053481414e-01  8.89819214277026e-01 -2.53992053481414e-01  8.89819214277026e-01  2.07021807557242e-03  5.41763646447960e-04
 4.86000000000000e+10  2.08855544648214e-03  5.10860019231946e-04 -2.38361833540799e-01  8.94081745586636e-01 -2.38361833540799e-01  8.94081745586636e-01  2.08855544648214e-03  5.10860019231946e-04
 4.86500000000000e+10  2.10579782858439e-03  4.79336739141523e-04 -2.22660227323278e-01  8.98069776842695e-01 -2.22660227323278e-01  8.98069776842695e-01  2.10579782858439e-03  4.79336739141523e-04
 4.87000000000000e+10  2.12192431967967e-03  4.47232581616519e-04 -2.06892054645174e-01  9.01782115225268e-01 -2.06892054645174e-01  9.01782115225268e-01  2.12192431967967e-03  4.47232581616519e-04
 4.87500000000000e+10  2.13691538988760e-03  4.14587025830046e-04 -1.91062155203229e-01  9.05217652523966e-01 -1.91062155203229e-01  9.05217652523966e-01  2.13691538988760e-03  4.14587025830046e-04
 4.88000000000000e+10  2.15075290529139e-03  3.81440206147498e-04 -1.75175387089761e-01  9.08375365468265e-01 -1.75175387089761e-01  9.08375365468265e-01  2.15075290529139e-03  3.81440206147498e-04
 4.88500000000000e+10  2.16342014986650e-03  3.47832862793062e-04 -1.59236625302389e-01  9.11254316031808e-01 -1.59236625302389e-01  9.11254316031808e-01  2.16342014986650e-03  3.47832862793062e-04
 4.89000000000000e+10  2.17490184566611e-03  3.13806291783953e-04 -1.43250760248667e-01  9.13853651710557e-01 -1.43250760248667e-01  9.13853651710557e-01  2.17490184566611e-03  3.13806291783953e-04
 4.89500000000000e+10  2.18518417124026e-03  2.79402294194514e-04 -1.27222696246299e-01  9.16172605774729e-01 -1.27222696246299e-01  9.16172605774729e-01  2.18518417124026e-03  2.79402294194514e-04
 4.90000000000000e+10  2.19425477826587e-03  2.44663124811897e-04 -1.11157350019103e-01  9.18210497494454e-01 -1.11157350019103e-01  9.18210497494454e-01  2.19425477826587e-03  2.44663124811897e-04
 4.90500000000000e+10  2.20210280636726e-03  2.09631440246704e-04 -9.50596491894845e-02  9.19966732339061e-01 -9.50596491894845e-02  9.19966732339061e-01  2.20210280636726e-03  2.09631440246704e-04
 4.91000000000000e+10  2.20871889611053e-03  1.74350246562281e-04 -7.89345307676232e-02  9.21440802149966e-01 -7.89345307676232e-02  9.21440802149966e-01  2.20871889611053e-03  1.74350246562281e-04
 4.91500000000000e+10  2.21409520015506e-03  1.38862846486870e-04 -6.27869396380493e-02  9.22632285287086e-01 -6.27869396380493e-02  9.22632285287086e-01  2.21409520015506e-03  1.38862846486870e-04
 4.92000000000000e+10  2.21822539254938e-03  1.03212786273356e-04 -4.66218270438898e-02  9.23540846748752e-01 -4.66218270438898e-02  9.23540846748752e-01  2.21822539254938e-03  1.03212786273356e-04
 4.92500000000000e+10  2.22110467616050e-03  6.74438022719480e-05 -3.04441490693845e-02  9.24166238265084e-01 -3.04441490693845e-02  9.24166238265084e-01  2.22110467616050e-03  6.74438022719480e-05
 4.93000000000000e+10  2.22272978822849e-03  3.15997672812741e-05 -1.42588651210627e-02  9.24508298364799e-01 -1.42588651210627e-02  9.24508298364799e-01  2.22272978822849e-03  3.15997672812741e-05
 4.93500000000000e+10  2.22309900403777e-03 -4.27536325641046e-06  1.92906359193178e-03  9.24566952415442e-01  1.92906359193178e-03  9.24566952415442e-01  2.22309900403777e-03 -4.27536325641046e-06
 4.94000000000000e+10  2.22221213870414e-03 -4.01376051497801e-05  1.81146755779080e-02  9.24342212637019e-01  1.81146755779080e-02  9.24342212637019e-01  2.22221213870414e-03 -4.01376051497801e-05
 4.94500000000000e+10  2.22007054707365e-03 -7.59429993767749e-05  3.42930105826020e-02  9.23834178089042e-01  3.42930105826020e-02  9.23834178089042e-01  2.22007054707365e-03 -7.59429993767749e-05
 4.95000000000000e+10  2.21667712173363e-03 -1.11647665960687e-04  5.04591111086637e-02  9.23043034630991e-01  5.04591111086637e-02  9.23043034630991e-01  2.21667712173363e-03 -1.11647665960687e-04
 4.95500000000000e+10  2.21203628914057e-03 -1.47207857737800e-04  6.66080239340555e-02  9.21969054856195e-01  6.66080239340555e-02  9.21969054856195e-01  2.21203628914057e-03 -1.47207857737800e-04
 4.96000000000000e+10  2.20615400386806e-03 -1.82580013950960e-04  8.27348016290840e-02  9.20612597999178e-01  8.27348016290840e-02  9.20612597999178e-01  2.20615400386806e-03 -1.82580013950960e-04
 4.96500000000000e+10  2.19903774098352e-03 -2.17720813603177e-04  9.88345040713974e-02  9.18974109816478e-01  9.88345040713974e-02  9.18974109816478e-01  2.19903774098352e-03 -2.17720813603177e-04
 4.97000000000000e+10  2.19069648656265e-03 -2.52587228506197e-04  1.14902199958689e-01  9.17054122440990e-01  1.14902199958689e-01  9.17054122440990e-01  2.19069648656265e-03 -2.52587228506197e-04
 4.97500000000000e+10  2.18114072635404e-03 -2.87136575958753e-04  1.30932968318460e-01  9.14853254209884e-01  1.30932968318460e-01  9.14853254209884e-01  2.18114072635404e-03 -2.87136575958753e-04
 4.98000000000000e+10  2.17038243260806e-03 -3.21326570990399e-04  1.46921900014520e-01  9.12372209466140e-01  1.46921900014520e-01  9.12372209466140e-01  2.17038243260806e-03 -3.21326570990399e-04
 4.98500000000000e+10  2.15843504908719e-03 -3.55115378106706e-04  1.62864099249679e-01  9.09611778333777e-01  1.62864099249679e-01  9.09611778333777e-01  2.15843504908719e-03 -3.55115378106706e-04
 4.99000000000000e+10  2.14531347427518e-03 -3.88461662472695e-04  1.78754685064228e-01  9.06572836466832e-01  1.78754685064228e-01  9.06572836466832e-01  2.14531347427518e-03 -3.88461662472695e-04
 4.99500000000000e+10  2.13103404280701e-03 -4.21324640471643e-04  1.94588792829707e-01  9.03256344772185e-01  1.94588792829707e-01  9.03256344772185e-01  2.13103404280701e-03 -4.21324640471643e-04
 5.00000000000000e+10  2.11561450514298e-03 -4.53664129577739e-04  2.10361575737517e-01  8.99663349106311e-01  2.10361575737517e-01  8.99663349106311e-01  2.11561450514298e-03 -4.53664129577739e-04
 5.00500000000000e+10  2.09907400551170e-03 -4.85440597481643e-04  2.26068206281959e-01  8.95794979946036e-01  2.26068206281959e-01  8.95794979946036e-01  2.09907400551170e-03 -4.85440597481643e-04
 5.01000000000000e+10  2.08143305814888e-03 -5.16615210408271e-04  2.41703877737180e-01  8.91652452033437e-01  2.41703877737180e-01  8.91652452033437e-01  2.08143305814888e-03 -5.16615210408271e-04
 5.01500000000000e+10  2.06271352186269e-03 -5.47149880568792e-04  2.57263805627626e-01  8.87237063994963e-01  2.57263805627626e-01  8.87237063994963e-01  2.06271352186269e-03 -5.47149880568792e-04
 5.02000000000000e+10  2.04293857295619e-03 -5.77007312687698e-04  2.72743229191540e-01  8.82550197934908e-01  2.72743229191540e-01  8.82550197934908e-01  2.04293857295619e-03 -5.77007312687698e-04
 5.02500000000000e+10  2.02213267654068e-03 -6.06151049549311e-04  2.88137412837048e-01  8.77593319003370e-01  2.88137412837048e-01  8.77593319003370e-01  2.02213267654068e-03 -6.06151049549311e-04
 5.03000000000000e+10  2.00032155627584e-03 -6.34545516507194e-04  3.03441647590387e-01  8.72367974938819e-01  3.03441647590387e-01  8.72367974938819e-01  2.00032155627584e-03 -6.34545516507194e-04
 5.03500000000000e+10  1.97753216257318e-03 -6.62156064902537e-04  3.18651252535884e-01  8.66875795585414e-01  3.18651252535884e-01  8.66875795585414e-01  1.97753216257318e-03 -6.62156064902537e-04
 5.04000000000000e+10  1.95379263930252e-03 -6.88949014338222e-04  3.33761576247128e-01  8.61118492385242e-01  3.33761576247128e-01  8.61118492385242e-01  1.95379263930252e-03 -6.88949014338222e-04
 5.04500000000000e+10  1.92913228904408e-03 -7.14891693757980e-04  3.48767998209062e-01  8.55097857845594e-01  3.48767998209062e-01  8.55097857845594e-01  1.92913228904408e-03 -7.14891693757980e-04
 5.05000000000000e+10  1.90358153692492e-03 -7.39952481278640e-04  3.63665930230395e-01  8.48815764981495e-01  3.63665930230395e-01  8.48815764981495e-01  1.90358153692492e-03 -7.39952481278640e-04
 5.05500000000000e+10  1.87717189309105e-03 -7.64100842729432e-04  3.78450817846029e-01  8.42274166733609e-01  3.78450817846029e-01  8.42274166733609e-01  1.87717189309105e-03 -7.64100842729432e-04
 5.06000000000000e+10  1.84993591385318e-03 -7.87307368848707e-04  3.93118141709010e-01  8.35475095361739e-01  3.93118141709010e-01  8.35475095361739e-01  1.84993591385318e-03 -7.87307368848707e-04
 5.06500000000000e+10  1.82190716156214e-03 -8.09543811095140e-04  4.07663418971584e-01  8.28420661814087e-01  4.07663418971584e-01  8.28420661814087e-01  1.82190716156214e-03 -8.09543811095140e-04
 5.07000000000000e+10  1.79312016325732e-03 -8.30783116028121e-04  4.22082204654951e-01  8.21113055072477e-01  4.22082204654951e-01  8.21113055072477e-01  1.79312016325732e-03 -8.30783116028121e-04
 5.07500000000000e+10  1.76361036814225e-03 -8.50999458216402e-04  4.36370093007300e-01  8.13554541473739e-01  4.36370093007300e-01  8.13554541473739e-01  1.76361036814225e-03 -8.50999458216402e-04
 5.08000000000000e+10  1.73341410393906e-03 -8.70168271634768e-04  4.50522718849691e-01  8.05747464007466e-01  4.50522718849691e-01  8.05747464007466e-01  1.73341410393906e-03 -8.70168271634768e-04
 5.08500000000000e+10  1.70256853217469e-03 -8.88266279510232e-04  4.64535758909388e-01  7.97694241590364e-01  4.64535758909388e-01  7.97694241590364e-01  1.70256853217469e-03 -8.88266279510232e-04
 5.09000000000000e+10  1.67111160245469e-03 -9.05271522581902e-04  4.78404933140232e-01  7.89397368317411e-01  4.78404933140232e-01  7.89397368317411e-01  1.67111160245469e-03 -9.05271522581902e-04
 5.09500000000000e+10  1.63908200578118e-03 -9.21163385740354e-04  4.92126006029656e-01  7.80859412690057e-01  4.92126006029656e-01  7.80859412690057e-01  1.63908200578118e-03 -9.21163385740354e-04
 5.10000000000000e+10  1.60651912697107e-03 -9.35922623013462e-04  5.05694787891933e-01  7.72083016821714e-01  5.05694787891933e-01  7.72083016821714e-01  1.60651912697107e-03 -9.35922623013462e-04
 5.10500000000000e+10  1.57346299623461e-03 -9.49531380869420e-04  5.19107136147273e-01  7.63070895620760e-01  5.19107136147273e-01  7.63070895620760e-01  1.57346299623461e-03 -9.49531380869420e-04
 5.11000000000000e+10  1.53995423997217e-03 -9.61973219807441e-04  5.32358956586354e-01  7.53825835951337e-01  5.32358956586354e-01  7.53825835951337e-01  1.53995423997217e-03 -9.61973219807441e-04
 5.11500000000000e+10  1.50603403085160e-03 -9.73233134211570e-04  5.45446204619968e-01  7.44350695772159e-01  5.45446204619968e-01  7.44350695772159e-01  1.50603403085160e-03 -9.73233134211570e-04
 5.12000000000000e+10  1.47174403722544e-03 -9.83297570442358e-04  5.58364886513277e-01  7.34648403253656e-01  5.58364886513277e-01  7.34648403253656e-01  1.47174403722544e-03 -9.83297570442358e-04
 5.12500000000000e+10  1.43712637195171e-03 -9.92154443145305e-04  5.71111060604462e-01  7.24721955873649e-01  5.71111060604462e-01  7.24721955873649e-01  1.43712637195171e-03 -9.92154443145305e-04
 5.13000000000000e+10  1.40222354068076e-03 -9.99793149756118e-04  5.83680838507231e-01  7.14574419491925e-01  5.83680838507231e-01  7.14574419491925e-01  1.40222354068076e-03 -9.99793149756118e-04
 5.13500000000000e+10  1.36707838967103e-03 -1.00620458318545e-03  5.96070386296952e-01  7.04208927403896e-01  5.96070386296952e-01  7.04208927403896e-01  1.36707838967103e-03 -1.00620458318545e-03
 5.14000000000000e+10  1.33173405319792e-03 -1.01138114266814e-03  6.08275925679968e-01  6.93628679373723e-01  6.08275925679968e-01  6.93628679373723e-01  1.33173405319792e-03 -1.01138114266814e-03
 5.14500000000000e+10  1.29623390062205e-03 -1.01531674276377e-03  6.20293735145764e-01  6.82836940647149e-01  6.20293735145764e-01  6.82836940647149e-01  1.29623390062205e-03 -1.01531674276377e-03
 5.15000000000000e+10  1.26062148317831e-03 -1.01800682049807e-03  6.32120151101639e-01  6.71837040944356e-01  6.32120151101639e-01  6.71837040944356e-01  1.26062148317831e-03 -1.01800682049807e-03
 5.15500000000000e+10  1.22494048055500e-03 -1.01944834063652e-03  6.43751568989511e-01  6.60632373433175e-01  6.43751568989511e-01  6.60632373433175e-01  1.22494048055500e-03 -1.01944834063652e-03
 5.16000000000000e+10  1.18923464732561e-03 -1.01963979908454e-03  6.55184444384569e-01  6.49226393682929e-01  6.55184444384569e-01  6.49226393682929e-01  1.18923464732561e-03 -1.01963979908454e-03
 5.16500000000000e+10  1.15354775930026e-03 -1.01858122441036e-03  6.66415294075364e-01  6.37622618599266e-01  6.66415294075364e-01  6.37622618599266e-01  1.15354775930026e-03 -1.01858122441036e-03
 5.17000000000000e+10  1.11792355986219e-03 -1.01627417748843e-03  6.77440697125059e-01  6.25824625340287e-01  6.77440697125059e-01  6.25824625340287e-01  1.11792355986219e-03 -1.01627417748843e-03
 5.17500000000000e+10  1.08240570635512e-03 -1.01272174926502e-03  6.88257295913511e-01  6.13836050214316e-01  6.88257295913511e-01  6.13836050214316e-01  1.08240570635512e-03 -1.01272174926502e-03
 5.18000000000000e+10  1.04703771658794e-03 -1.00792855664937e-03  6.98861797159837e-01  6.01660587559637e-01  6.98861797159837e-01  6.01660587559637e-01  1.04703771658794e-03 -1.00792855664937e-03
 5.18500000000000e+10  1.01186291552028e-03 -1.00190073653376e-03  7.09250972925187e-01  5.89301988606557e-01  7.09250972925187e-01  5.89301988606557e-01  1.01186291552028e-03 -1.00190073653376e-03
 5.19000000000000e+10  9.76924382196790e-04 -9.94645937954067e-04  7.19421661595394e-01  5.76764060322130e-01  7.19421661595394e-01  5.76764060322130e-01  9.76924382196790e-04 -9.94645937954067e-04
 5.19500000000000e+10  9.42264896993254e-04 -9.86173312396012e-04  7.29370768843216e-01  5.64050664237917e-01  7.29370768843216e-01  5.64050664237917e-01  9.42264896993254e-04 -9.86173312396012e-04
 5.20000000000000e+10  9.07926889239758e-04 -9.76493502263473e-04  7.39095268569859e-01  5.51165715261113e-01  7.39095268569859e-01  5.51165715261113e-01  9.07926889239758e-04 -9.76493502263473e-04
 5.20500000000000e+10  8.73952385285475e-04 -9.65618627521280e-04  7.48592203825510e-01  5.38113180469452e-01  7.48592203825510e-01  5.38113180469452e-01  8.73952385285475e-04 -9.65618627521280e-04
 5.21000000000000e+10  8.40382957067732e-04 -9.53562270529170e-04  7.57858687708612e-01  5.24897077890184e-01  7.57858687708612e-01  5.24897077890184e-01  8.40382957067732e-04 -9.53562270529170e-04
 5.21500000000000e+10  8.07259671249154e-04 -9.40339459087452e-04  7.66891904243543e-01  5.11521475263616e-01  7.66891904243543e-01  5.11521475263616e-01  8.07259671249154e-04 -9.40339459087452e-04
 5.22000000000000e+10  7.74623038984090e-04 -9.25966647713278e-04  7.75689109236524e-01  4.97990488791461e-01  7.75689109236524e-01  4.97990488791461e-01  7.74623038984090e-04 -9.25966647713278e-04
 5.22500000000000e+10  7.42512966377551e-04 -9.10461697172776e-04  7.84247631109422e-01  4.84308281870492e-01  7.84247631109422e-01  4.84308281870492e-01  7.42512966377551e-04 -9.10461697172776e-04
 5.23000000000000e+10  7.10968705694951e-04 -8.93843852293566e-04  7.92564871711222e-01  4.70479063811832e-01  7.92564871711222e-01  4.70479063811832e-01  7.10968705694951e-04 -8.93843852293566e-04
 5.23500000000000e+10  6.80028807383915e-04 -8.76133718085105e-04  8.00638307106921e-01  4.56507088546281e-01  8.00638307106921e-01  4.56507088546281e-01  6.80028807383915e-04 -8.76133718085105e-04
 5.24000000000000e+10  6.49731072966368e-04 -8.57353234197221e-04  8.08465488343602e-01  4.42396653316095e-01  8.08465488343602e-01  4.42396653316095e-01  6.49731072966368e-04 -8.57353234197221e-04
 5.24500000000000e+10  6.20112508858383e-04 -8.37525647747568e-04  8.16044042193442e-01  4.28152097353619e-01  8.16044042193442e-01  4.28152097353619e-01  6.20112508858383e-04 -8.37525647747568e-04
 5.25000000000000e+10  5.91209281174304e-04 -8.16675484552311e-04  8.23371671873460e-01  4.13777800547124e-01  8.23371671873460e-01  4.13777800547124e-01  5.91209281174304e-04 -8.16675484552311e-04
 5.25500000000000e+10  5.63056671569842e-04 -7.94828518795294e-04  8.30446157741737e-01  3.99278182094370e-01  8.30446157741737e-01  3.99278182094370e-01  5.63056671569842e-04 -7.94828518795294e-04
 5.26000000000000e+10  5.35689034179175e-04 -7.72011741173503e-04  8.37265357969946e-01  3.84657699144193e-01  8.37265357969946e-01  3.84657699144193e-01  5.35689034179175e-04 -7.72011741173503e-04
 5.26500000000000e+10  5.09139753697449e-04 -7.48253325557792e-04  8.43827209191947e-01  3.69920845426615e-01  8.43827209191947e-01  3.69920845426615e-01  5.09139753697449e-04 -7.48253325557792e-04
 5.27000000000000e+10  4.83441204660391e-04 -7.23582594210333e-04  8.50129727128289e-01  3.55072149871823e-01  8.50129727128289e-01  3.55072149871823e-01  4.83441204660391e-04 -7.23582594210333e-04
 5.27500000000000e+10  4.58624711970873e-04 -6.98029981601626e-04  8.56171007186371e-01  3.40116175218573e-01  8.56171007186371e-01  3.40116175218573e-01  4.58624711970873e-04 -6.98029981601626e-04
 5.28000000000000e+10  4.34720512719778e-04 -6.71626996871435e-04  8.61949225036171e-01  3.25057516612224e-01  8.61949225036171e-01  3.25057516612224e-01  4.34720512719778e-04 -6.71626996871435e-04
 5.28500000000000e+10  4.11757719348924e-04 -6.44406184981048e-04  8.67462637161248e-01  3.09900800193123e-01  8.67462637161248e-01  3.09900800193123e-01  4.11757719348924e-04 -6.44406184981048e-04
 5.29000000000000e+10  3.89764284199326e-04 -6.16401086602841e-04  8.72709581384967e-01  2.94650681675504e-01  8.72709581384967e-01  2.94650681675504e-01  3.89764284199326e-04 -6.16401086602841e-04
 5.29500000000000e+10  3.68766965489861e-04 -5.87646196798257e-04  8.77688477371711e-01  2.79311844917500e-01  8.77688477371711e-01  2.79311844917500e-01  3.68766965489861e-04 -5.87646196798257e-04
 5.30000000000000e+10  3.48791294766029e-04 -5.58176922534733e-04  8.82397827102956e-01  2.63889000482664e-01  8.82397827102956e-01  2.63889000482664e-01  3.48791294766029e-04 -5.58176922534733e-04
 5.30500000000000e+10  3.29861545858935e-04 -5.28029539093042e-04  8.86836215328062e-01  2.48386884193430e-01  8.86836215328062e-01  2.48386884193430e-01  3.29861545858935e-04 -5.28029539093042e-04
 5.31000000000000e+10  3.12000705393844e-04 -4.97241145419698e-04  8.91002309989640e-01  2.32810255676969e-01  8.91002309989640e-01  2.32810255676969e-01  3.12000705393844e-04 -4.97241145419698e-04
 5.31500000000000e+10  2.95230444880471e-04 -4.65849618479104e-04  8.94894862623376e-01  2.17163896903891e-01  8.94894862623376e-01  2.17163896903891e-01  2.95230444880471e-04 -4.65849618479104e-04
 5.32000000000000e+10  2.79571094423219e-04 -4.33893566661089e-04  8.98512708732175e-01  2.01452610720232e-01  8.98512708732175e-01  2.01452610720232e-01  2.79571094423219e-04 -4.33893566661089e-04
 5.32500000000000e+10  2.65041618079826e-04 -4.01412282302072e-04  9.01854768134528e-01  1.85681219373183e-01  9.01854768134528e-01  1.85681219373183e-01  2.65041618079826e-04 -4.01412282302072e-04
 5.33000000000000e+10  2.51659590900456e-04 -3.68445693377340e-04  9.04920045286988e-01  1.69854563031029e-01  9.04920045286988e-01  1.69854563031029e-01  2.51659590900456e-04 -3.68445693377340e-04
 5.33500000000000e+10  2.39441177673323e-04 -3.35034314424377e-04  9.07707629580666e-01  1.53977498297694e-01  9.07707629580666e-01  1.53977498297694e-01  2.39441177673323e-04 -3.35034314424377e-04
 5.34000000000000e+10  2.28401113404512e-04 -3.01219196757414e-04  9.10216695611644e-01  1.38054896722452e-01  9.10216695611644e-01  1.38054896722452e-01  2.28401113404512e-04 -3.01219196757414e-04
 5.34500000000000e+10  2.18552685553672e-04 -2.67041878034201e-04  9.12446503425243e-01  1.22091643305157e-01  9.12446503425243e-01  1.22091643305157e-01  2.18552685553672e-04 -2.67041878034201e-04
 5.35000000000000e+10  2.09907718047845e-04 -2.32544331237352e-04  9.14396398734054e-01  1.06092634997528e-01  9.14396398734054e-01  1.06092634997528e-01  2.09907718047845e-04 -2.32544331237352e-04
 5.35500000000000e+10  2.02476557093348e-04 -1.97768913132500e-04  9.16065813109689e-01  9.00627792008738e-02  9.16065813109689e-01  9.00627792008738e-02  2.02476557093348e-04 -1.97768913132500e-04
 5.36000000000000e+10  1.96268058800891e-04 -1.62758312266806e-04  9.17454264148176e-01  7.40069922608221e-02  9.17454264148176e-01  7.40069922608221e-02  1.96268058800891e-04 -1.62758312266806e-04
 5.36500000000000e+10  1.91289578640922e-04 -1.27555496571561e-04  9.18561355608952e-01  5.79301979594101e-02  9.18561355608952e-01  5.79301979594101e-02  1.91289578640922e-04 -1.27555496571561e-04
 5.37000000000000e+10  1.87546962739811e-04 -9.22036606333320e-05  9.19386777527437e-01  4.18373260050807e-02  9.19386777527437e-01  4.18373260050807e-02  1.87546962739811e-04 -9.22036606333320e-05
 5.37500000000000e+10  1.85044541028690e-04 -5.67461726980694e-05  9.19930306301119e-01  2.57333105209756e-02  9.19930306301119e-01  2.57333105209756e-02  1.85044541028690e-04 -5.67461726980694e-05
 5.38000000000000e+10  1.83785122251497e-04 -2.12265214735910e-05  9.20191804749161e-01  9.62308853208443e-03  9.20191804749161e-01  9.62308853208443e-03  1.83785122251497e-04 -2.12265214735910e-05
 5.38500000000000e+10  1.83769990839492e-04  1.43117372047678e-05  9.20171222145491e-01 -6.48840154842941e-03  9.20171222145491e-01 -6.48840154842941e-03  1.83769990839492e-04  1.43117372047678e-05
 5.39000000000000e+10  1.84998905654600e-04  4.98250337793585e-05  9.19868594225381e-01 -2.25962214330355e-02  9.19868594225381e-01 -2.25962214330355e-02  1.84998905654600e-04  4.98250337793585e-05
 5.39500000000000e+10  1.87470100603068e-04  8.52698383814815e-05  9.19284043165508e-01 -3.86954344736150e-02  9.19284043165508e-01 -3.86954344736150e-02  1.87470100603068e-04  8.52698383814815e-05
 5.40000000000000e+10  1.91180287118000e-04  1.20602714182555e-04  9.18417777537512e-01 -5.47811071744259e-02  9.18417777537512e-01 -5.47811071744259e-02  1.91180287118000e-04  1.20602714182555e-04
 5.40500000000000e+10  1.96124658508498e-04  1.55780370620366e-04  9.17270092235058e-01 -7.08483107040677e-02  9.17270092235058e-01 -7.08483107040677e-02  1.96124658508498e-04  1.55780370620366e-04
 5.41000000000000e+10  2.02296896167802e-04  1.90759716434692e-04  9.15841368374441e-01 -8.68921224057498e-02  9.15841368374441e-01 -8.68921224057498e-02  2.02296896167802e-04  1.90759716434692e-04
 5.41500000000000e+10  2.09689177634316e-04  2.25497912447843e-04  9.14132073168758e-01 -1.02907627305612e-01  9.14132073168758e-01 -1.02907627305612e-01  2.09689177634316e-04  2.25497912447843e-04
 5.42000000000000e+10  2.18292186493228e-04  2.59952424024944e-04  9.12142759775691e-01 -1.18889919618428e-01  9.12142759775691e-01 -1.18889919618428e-01  2.18292186493228e-04  2.59952424024944e-04
 5.42500000000000e+10  2.28095124109347e-04  2.94081073150089e-04  9.09874067118947e-01 -1.34834104250419e-01  9.09874067118947e-01 -1.34834104250419e-01  2.28095124109347e-04  2.94081073150089e-04
 5.43000000000000e+10  2.39085723171706e-04  3.27842090054576e-04  9.07326719683418e-01 -1.50735298298571e-01  9.07326719683418e-01 -1.50735298298571e-01  2.39085723171706e-04  3.27842090054576e-04
 5.43500000000000e+10  2.51250263038480e-04  3.61194164333676e-04  9.04501527284134e-01 -1.66588632546070e-01  9.04501527284134e-01 -1.66588632546070e-01  2.51250263038480e-04  3.61194164333676e-04
 5.44000000000000e+10  2.64573586857844e-04  3.94096495490024e-04  9.01399384809056e-01 -1.82389252953404e-01  9.01399384809056e-01 -1.82389252953404e-01  2.64573586857844e-04  3.94096495490024e-04
 5.44500000000000e+10  2.79039120447362e-04  4.26508842841120e-04  8.98021271935824e-01 -1.98132322144602e-01  8.98021271935824e-01 -1.98132322144602e-01  2.79039120447362e-04  4.26508842841120e-04
 5.45000000000000e+10  2.94628892905957e-04  4.58391574730263e-04  8.94368252822533e-01 -2.13813020888249e-01  8.94368252822533e-01 -2.13813020888249e-01  2.94628892905957e-04  4.58391574730263e-04
 5.45500000000000e+10  3.11323558934015e-04  4.89705716980787e-04  8.90441475772629e-01 -2.29426549572735e-01  8.90441475772629e-01 -2.29426549572735e-01  3.11323558934015e-04  4.89705716980787e-04
 5.46000000000000e+10  3.29102422833182e-04  5.20413000534178e-04  8.86242172874048e-01 -2.44968129675370e-01  8.86242172874048e-01 -2.44968129675370e-01  3.29102422833182e-04  5.20413000534178e-04
 5.46500000000000e+10  3.47943464157686e-04  5.50475908213942e-04  8.81771659612699e-01 -2.60433005224832e-01  8.81771659612699e-01 -2.60433005224832e-01  3.47943464157686e-04  5.50475908213942e-04
 5.47000000000000e+10  3.67823364982075e-04  5.79857720557890e-04  8.77031334460414e-01 -2.75816444256577e-01  8.77031334460414e-01 -2.75816444256577e-01  3.67823364982075e-04  5.79857720557890e-04
 5.47500000000000e+10  3.88717538755809e-04  6.08522560663317e-04  8.72022678437509e-01 -2.91113740260662e-01  8.72022678437509e-01 -2.91113740260662e-01  3.88717538755809e-04  6.08522560663317e-04
 5.48000000000000e+10  4.10600160705595e-04  6.36435437989829e-04  8.66747254650065e-01 -3.06320213621711e-01  8.66747254650065e-01 -3.06320213621711e-01  4.10600160705595e-04  6.36435437989829e-04
 5.48500000000000e+10  4.33444199750062e-04  6.63562291066436e-04  8.61206707802106e-01 -3.21431213050345e-01  8.61206707802106e-01 -3.21431213050345e-01  4.33444199750062e-04  6.63562291066436e-04
 5.49000000000000e+10  4.57221451885293e-04  6.89870029051247e-04  8.55402763682800e-01 -3.36442117005891e-01  8.55402763682800e-01 -3.36442117005891e-01  4.57221451885293e-04  6.89870029051247e-04
 5.49500000000000e+10  4.81902575002509e-04  7.15326572092264e-04  8.49337228628876e-01 -3.51348335109701e-01  8.49337228628876e-01 -3.51348335109701e-01  4.81902575002509e-04  7.15326572092264e-04
 5.50000000000000e+10  5.07457125092650e-04  7.39900890440747e-04  8.43011988962369e-01 -3.66145309548855e-01  8.43011988962369e-01 -3.66145309548855e-01  5.07457125092650e-04  7.39900890440747e-04
 5.50500000000000e+10  5.33853593794403e-04  7.63563042269051e-04  8.36429010403952e-01 -3.80828516469634e-01  8.36429010403952e-01 -3.80828516469634e-01  5.33853593794403e-04  7.63563042269051e-04
 5.51000000000000e+10  5.61059447238972e-04  7.86284210147349e-04  8.29590337461941e-01 -3.95393467360506e-01  8.29590337461941e-01 -3.95393467360506e-01  5.61059447238972e-04  7.86284210147349e-04
 5.51500000000000e+10  5.89041166144176e-04  8.08036736133910e-04  8.22498092797261e-01 -4.09835710424042e-01  8.22498092797261e-01 -4.09835710424042e-01  5.89041166144176e-04  8.08036736133910e-04
 5.52000000000000e+10  6.17764287107142e-04  8.28794155437305e-04  8.15154476564487e-01 -4.24150831937487e-01  8.15154476564487e-01 -4.24150831937487e-01  6.17764287107142e-04  8.28794155437305e-04
 5.52500000000000e+10  6.47193445047062e-04  8.48531228608519e-04  8.07561765729222e-01 -4.38334457601463e-01  8.07561765729222e-01 -4.38334457601463e-01  6.47193445047062e-04  8.48531228608519e-04
 5.53000000000000e+10  6.77292416742860e-04  8.67223972225205e-04  7.99722313362000e-01 -4.52382253876445e-01  7.99722313362000e-01 -4.52382253876445e-01  6.77292416742860e-04  8.67223972225205e-04
 5.53500000000000e+10  7.08024165414903e-04  8.84849688028536e-04  7.91638547908939e-01 -4.66289929306587e-01  7.91638547908939e-01 -4.66289929306587e-01  7.08024165414903e-04  8.84849688028536e-04
 5.54000000000000e+10  7.39350886293767e-04  9.01386990480068e-04  7.83312972439366e-01 -4.80053235830503e-01  7.83312972439366e-01 -4.80053235830503e-01  7.39350886293767e-04  9.01386990480068e-04
 5.54500000000000e+10  7.71234053121573e-04  9.16815832702871e-04  7.74748163870668e-01 -4.93667970078574e-01  7.74748163870668e-01 -4.93667970078574e-01  7.71234053121573e-04  9.16815832702871e-04
 5.55000000000000e+10  8.03634465527339e-04  9.31117530776718e-04  7.65946772170572e-01 -5.07129974656439e-01  7.65946772170572e-01 -5.07129974656439e-01  8.03634465527339e-04  9.31117530776718e-04
 5.55500000000000e+10  8.36512297219309e-04  9.44274786357276e-04  7.56911519537139e-01 -5.20435139414220e-01  7.56911519537139e-01 -5.20435139414220e-01  8.36512297219309e-04  9.44274786357276e-04
 5.56000000000000e+10  8.69827144934045e-04  9.56271707592289e-04  7.47645199556713e-01 -5.33579402701121e-01  7.47645199556713e-01 -5.33579402701121e-01  8.69827144934045e-04  9.56271707592289e-04
 5.56500000000000e+10  9.03538078082880e-04  9.67093828309645e-04  7.38150676340086e-01 -5.46558752605018e-01  7.38150676340086e-01 -5.46558752605018e-01  9.03538078082880e-04  9.67093828309645e-04
 5.57000000000000e+10  9.37603689034030e-04  9.76728125453488e-04  7.28430883637130e-01 -5.59369228176677e-01  7.28430883637130e-01 -5.59369228176677e-01  9.37603689034030e-04  9.76728125453488e-04
 5.57500000000000e+10  9.71982143969456e-04  9.85163034747369e-04  7.18488823930207e-01 -5.72006920638189e-01  7.18488823930207e-01 -5.72006920638189e-01  9.71982143969456e-04  9.85163034747369e-04
 5.58000000000000e+10  1.00663123425295e-03  9.92388464567884e-04  7.08327567506619e-01 -5.84467974575273e-01  7.08327567506619e-01 -5.84467974575273e-01  1.00663123425295e-03  9.92388464567884e-04
 5.58500000000000e+10  1.04150842824732e-03  9.98395808007272e-04  6.97950251510349e-01 -5.96748589113116e-01  6.97950251510349e-01 -5.96748589113116e-01  1.04150842824732e-03  9.98395808007272e-04
 5.59000000000000e+10  1.07657092351650e-03  1.00317795311654e-03  6.87360078973484e-01 -6.08845019075309e-01  6.87360078973484e-01 -6.08845019075309e-01  1.07657092351650e-03  1.00317795311654e-03
 5.59500000000000e+10  1.11177569934901e-03  1.00672929131231e-03  6.76560317827487e-01 -6.20753576125646e-01  6.76560317827487e-01 -6.20753576125646e-01  1.11177569934901e-03  1.00672929131231e-03
 5.60000000000000e+10  1.14707956953729e-03  1.00904572393928e-03  6.65554299894763e-01 -6.32470629892294e-01  6.65554299894763e-01 -6.32470629892294e-01  1.14707956953729e-03  1.00904572393928e-03
 5.60500000000000e+10  1.18243923535017e-03  1.01012466698133e-03  6.54345419860707e-01 -6.43992609074138e-01  6.54345419860707e-01 -6.43992609074138e-01  1.18243923535017e-03  1.01012466698133e-03
 5.61000000000000e+10  1.21781133863061e-03  1.00996505391431e-03  6.42937134226635e-01 -6.55316002528855e-01  6.42937134226635e-01 -6.55316002528855e-01  1.21781133863061e-03  1.00996505391431e-03
 5.61500000000000e+10  1.25315251495660e-03  1.00856733669826e-03  6.31332960243896e-01 -6.66437360342436e-01  6.31332960243896e-01 -6.66437360342436e-01  1.25315251495660e-03  1.00856733669826e-03
 5.62000000000000e+10  1.28841944679787e-03  1.00593348490862e-03  6.19536474829481e-01 -6.77353294879825e-01  6.19536474829481e-01 -6.77353294879825e-01  1.28841944679787e-03  1.00593348490862e-03
 5.62500000000000e+10  1.32356891660430e-03  1.00206698300681e-03  6.07551313463477e-01 -6.88060481816352e-01  6.07551313463477e-01 -6.88060481816352e-01  1.32356891660430e-03  1.00206698300681e-03
 5.63000000000000e+10  1.35855785976099e-03  9.96972825755156e-04  5.95381169068721e-01 -6.98555661149635e-01  5.95381169068721e-01 -6.98555661149635e-01  1.35855785976099e-03  9.96972825755156e-04
 5.63500000000000e+10  1.39334341734399e-03  9.90657511780746e-04  5.83029790872956e-01 -7.08835638191677e-01  5.83029790872956e-01 -7.08835638191677e-01  1.39334341734399e-03  9.90657511780746e-04
 5.64000000000000e+10  1.42788298861393e-03  9.83129035297982e-04  5.70500983253880e-01 -7.18897284540824e-01  5.70500983253880e-01 -7.18897284540824e-01  1.42788298861393e-03  9.83129035297982e-04
 5.64500000000000e+10  1.46213428318180e-03  9.74396875999512e-04  5.57798604567448e-01 -7.28737539033292e-01  5.57798604567448e-01 -7.28737539033292e-01  1.46213428318180e-03  9.74396875999512e-04
 5.65000000000000e+10  1.49605537278326e-03  9.64471987127907e-04  5.44926565959755e-01 -7.38353408673994e-01  5.44926565959755e-01 -7.38353408673994e-01  1.49605537278326e-03  9.64471987127907e-04
 5.65500000000000e+10  1.52960474259873e-03  9.53366781744658e-04  5.31888830162873e-01 -7.47741969546381e-01  5.31888830162873e-01 -7.47741969546381e-01  1.52960474259873e-03  9.53366781744658e-04
 5.66000000000000e+10  1.56274134205583e-03  9.41095117211738e-04  5.18689410275046e-01 -7.56900367700999e-01  5.18689410275046e-01 -7.56900367700999e-01  1.56274134205583e-03  9.41095117211738e-04
 5.66500000000000e+10  1.59542463505207e-03  9.27672277906554e-04  5.05332368525587e-01 -7.65825820022519e-01  5.05332368525587e-01 -7.65825820022519e-01  1.59542463505207e-03  9.27672277906554e-04
 5.67000000000000e+10  1.62761464953693e-03  9.13114956191137e-04  4.91821815024859e-01 -7.74515615074959e-01  4.91821815024859e-01 -7.74515615074959e-01  1.62761464953693e-03  9.13114956191137e-04
 5.67500000000000e+10  1.65927202639179e-03  8.97441231659899e-04  4.78161906499746e-01 -7.82967113924861e-01  4.78161906499746e-01 -7.82967113924861e-01  1.65927202639179e-03  8.97441231659899e-04
 5.68000000000000e+10  1.69035806754883e-03  8.80670548690879e-04  4.64356845014973e-01 -7.91177750942153e-01  4.64356845014973e-01 -7.91177750942153e-01  1.69035806754883e-03  8.80670548690879e-04
 5.68500000000000e+10  1.72083478328910e-03  8.62823692328786e-04  4.50410876680700e-01 -7.99145034578474e-01  4.50410876680700e-01 -7.99145034578474e-01  1.72083478328910e-03  8.62823692328786e-04
 5.69000000000000e+10  1.75066493866325e-03  8.43922762530326e-04  4.36328290346768e-01 -8.06866548122700e-01  4.36328290346768e-01 -8.06866548122700e-01  1.75066493866325e-03  8.43922762530326e-04
 5.69500000000000e+10  1.77981209897753e-03  8.23991146802739e-04  4.22113416283983e-01 -8.14339950433494e-01  4.22113416283983e-01 -8.14339950433494e-01  1.77981209897753e-03  8.23991146802739e-04
 5.70000000000000e+10  1.80824067428802e-03  8.03053491269530e-04  4.07770624852899e-01 -8.21562976648583e-01  4.07770624852899e-01 -8.21562976648583e-01  1.80824067428802e-03  8.03053491269530e-04
 5.70500000000000e+10  1.83591596285245e-03  7.81135670200386e-04  3.93304325160443e-01 -8.28533438870621e-01  3.93304325160443e-01 -8.28533438870621e-01  1.83591596285245e-03  7.81135670200386e-04
 5.71000000000000e+10  1.86280419348260e-03  7.58264754041232e-04  3.78718963704847e-01 -8.35249226829385e-01  3.78718963704847e-01 -8.35249226829385e-01  1.86280419348260e-03  7.58264754041232e-04
 5.71500000000000e+10  1.88887256674782e-03  7.34468975985105e-04  3.64019023009241e-01 -8.41708308520140e-01  3.64019023009241e-01 -8.41708308520140e-01  1.88887256674782e-03  7.34468975985105e-04
 5.72000000000000e+10  1.91408929497964e-03  7.09777697124930e-04  3.49209020244449e-01 -8.47908730817919e-01  3.49209020244449e-01 -8.47908730817919e-01  1.91408929497964e-03  7.09777697124930e-04
 5.72500000000000e+10  1.93842364102675e-03  6.84221370230506e-04  3.34293505841196e-01 -8.53848620067640e-01  3.34293505841196e-01 -8.53848620067640e-01  1.93842364102675e-03  6.84221370230506e-04
 5.73000000000000e+10  1.96184595571531e-03  6.57831502195452e-04  3.19277062092440e-01 -8.59526182649747e-01  3.19277062092440e-01 -8.59526182649747e-01  1.96184595571531e-03  6.57831502195452e-04
 5.73500000000000e+10  1.98432771396748e-03  6.30640615199661e-04  3.04164301745984e-01 -8.64939705521329e-01  3.04164301745984e-01 -8.64939705521329e-01  1.98432771396748e-03  6.30640615199661e-04
 5.74000000000000e+10  2.00584154953503e-03  6.02682206635209e-04  2.88959866587961e-01 -8.70087556732482e-01  2.88959866587961e-01 -8.70087556732482e-01  2.00584154953503e-03  6.02682206635209e-04
 5.74500000000000e+10  2.02636128830489e-03  5.73990707845490e-04  2.73668426017587e-01 -8.74968185917776e-01  2.73668426017587e-01 -8.74968185917776e-01  2.02636128830489e-03  5.73990707845490e-04
 5.75000000000000e+10  2.04586198013754e-03  5.44601441728043e-04  2.58294675613610e-01 -8.79580124762688e-01  2.58294675613610e-01 -8.79580124762688e-01  2.04586198013754e-03  5.44601441728043e-04
 5.75500000000000e+10  2.06431992919704e-03  5.14550579253118e-04  2.42843335692895e-01 -8.83921987444858e-01  2.42843335692895e-01 -8.83921987444858e-01  2.06431992919704e-03  5.14550579253118e-04
 5.76000000000000e+10  2.08171272273935e-03  4.83875094952131e-04  2.27319149861601e-01 -8.87992471050028e-01  2.27319149861601e-01 -8.87992471050028e-01  2.08171272273935e-03  4.83875094952131e-04
 5.76500000000000e+10  2.09801925832040e-03  4.52612721430045e-04  2.11726883559373e-01 -8.91790355962561e-01  2.11726883559373e-01 -8.91790355962561e-01  2.09801925832040e-03  4.52612721430045e-04
 5.77000000000000e+10  2.11321976939341e-03  4.20801902958212e-04  1.96071322597015e-01 -8.95314506230386e-01  1.96071322597015e-01 -8.95314506230386e-01  2.11321976939341e-03  4.20801902958212e-04
 5.77500000000000e+10  2.12729584926379e-03  3.88481748204417e-04  1.80357271688096e-01 -8.98563869904306e-01  1.80357271688096e-01 -8.98563869904306e-01  2.12729584926379e-03  3.88481748204417e-04
 5.78000000000000e+10  2.14023047337077e-03  3.55691982157967e-04  1.64589552974880e-01 -9.01537479351539e-01  1.64589552974880e-01 -9.01537479351539e-01  2.14023047337077e-03  3.55691982157967e-04
 5.78500000000000e+10  2.15200801987233e-03  3.22472897309905e-04  1.48773004549141e-01 -9.04234451543400e-01  1.48773004549141e-01 -9.04234451543400e-01  2.15200801987233e-03  3.22472897309905e-04
 5.79000000000000e+10  2.16261428850586e-03  2.88865304147222e-04  1.32912478968204e-01 -9.06653988317053e-01  1.32912478968204e-01 -9.06653988317053e-01  2.16261428850586e-03  2.88865304147222e-04
 5.79500000000000e+10  2.17203651770154e-03  2.54910481022375e-04  1.17012841766750e-01 -9.08795376611243e-01  1.17012841766750e-01 -9.08795376611243e-01  2.17203651770154e-03  2.54910481022375e-04
 5.80000000000000e+10  2.18026339993067e-03  2.20650123459799e-04  1.01078969964755e-01 -9.10657988675956e-01  1.01078969964755e-01 -9.10657988675956e-01  2.18026339993067e-03  2.20650123459799e-04
 5.80500000000000e+10  2.18728509526715e-03  1.86126292961502e-04  8.51157505721456e-02 -9.12241282255914e-01  8.51157505721456e-02 -9.12241282255914e-01  2.18728509526715e-03  1.86126292961502e-04
 5.81000000000000e+10  2.19309324314756e-03  1.51381365374369e-04  6.91280790904653e-02 -9.13544800747895e-01  6.91280790904653e-02 -9.13544800747895e-01  2.19309324314756e-03  1.51381365374369e-04
 5.81500000000000e+10  2.19768097231670e-03  1.16457978883133e-04  5.31208580121865e-02 -9.14568173331791e-01  5.31208580121865e-02 -9.14568173331791e-01  2.19768097231670e-03  1.16457978883133e-04
 5.82000000000000e+10  2.20104290894428e-03  8.13989816921176e-05  3.70989953179567e-02 -9.15311115075400e-01  3.70989953179567e-02 -9.15311115075400e-01  2.20104290894428e-03  8.13989816921176e-05
 5.82500000000000e+10  2.20317518290527e-03  4.62473794605218e-05  2.10674029723946e-02 -9.15773427012895e-01  2.10674029723946e-02 -9.15773427012895e-01  2.20317518290527e-03  4.62473794605218e-05
 5.83000000000000e+10  2.20407543221585e-03  1.10462825552871e-05  5.03099541872871e-03 -9.15954996196979e-01  5.03099541872871e-03 -9.15954996196979e-01  2.20407543221585e-03  1.10462825552871e-05
 5.83500000000000e+10  2.20374280561997e-03 -2.41611468133202e-05 -1.10053119270295e-02 -9.15855795724677e-01 -1.10053119270295e-02 -9.15855795724677e-01  2.20374280561997e-03 -2.41611468133202e-05
 5.84000000000000e+10  2.20217796332302e-03 -5.93317475091691e-05 -2.70366041822235e-02 -9.15475884736799e-01 -2.70366041822235e-02 -9.15475884736799e-01  2.20217796332302e-03 -5.93317475091691e-05
 5.84500000000000e+10  2.19938307587427e-03 -9.44224123752942e-05 -4.30579685032196e-02 -9.14815408391037e-01 -4.30579685032196e-02 -9.14815408391037e-01  2.19938307587427e-03 -9.44224123752942e-05
 5.85000000000000e+10  2.19536182119673e-03 -1.29390141062190e-04 -5.90644955904181e-02 -9.13874597808747e-01 -5.90644955904181e-02 -9.13874597808747e-01  2.19536182119673e-03 -1.29390141062190e-04
 5.85500000000000e+10  2.19011937977048e-03 -1.64192092714171e-04 -7.50512811919400e-02 -9.12653769995396e-01 -7.50512811919400e-02 -9.12653769995396e-01  2.19011937977048e-03 -1.64192092714171e-04
 5.86000000000000e+10  2.18366242797662e-03 -1.98785638449753e-04 -9.10134276056760e-02 -9.11153327734731e-01 -9.10134276056760e-02 -9.11153327734731e-01  2.18366242797662e-03 -1.98785638449753e-04
 5.86500000000000e+10  2.17599912960688e-03 -2.33128413571214e-04 -1.06946045179124e-01 -9.09373759456694e-01 -1.06946045179124e-01 -9.09373759456694e-01  2.17599912960688e-03 -2.33128413571214e-04
 5.87000000000000e+10  2.16713912555386e-03 -2.67178369440003e-04 -1.22844253806697e-01 -9.07315639079118e-01 -1.22844253806697e-01 -9.07315639079118e-01  2.16713912555386e-03 -2.67178369440003e-04
 5.87500000000000e+10  2.15709352169115e-03 -3.00893824953936e-04 -1.38703184423869e-01 -9.04979625823266e-01 -1.38703184423869e-01 -9.04979625823266e-01  2.15709352169115e-03 -3.00893824953936e-04
 5.88000000000000e+10  2.14587487496191e-03 -3.34233517563507e-04 -1.54517980497836e-01 -9.02366464003272e-01 -1.54517980497836e-01 -9.02366464003272e-01  2.14587487496191e-03 -3.34233517563507e-04
 5.88500000000000e+10  2.13349717769054e-03 -3.67156653764878e-04 -1.70283799514204e-01 -8.99476982789539e-01 -1.70283799514204e-01 -8.99476982789539e-01  2.13349717769054e-03 -3.67156653764878e-04
 5.89000000000000e+10  2.11997584013894e-03 -3.99622959007594e-04 -1.85995814459229e-01 -8.96312095946184e-01 -1.85995814459229e-01 -8.96312095946184e-01  2.11997584013894e-03 -3.99622959007594e-04
 5.89500000000000e+10  2.10532767132795e-03 -4.31592726956083e-04 -2.01649215297146e-01 -8.92872801542597e-01 -2.01649215297146e-01 -8.92872801542597e-01  2.10532767132795e-03 -4.31592726956083e-04
 5.90000000000000e+10  2.08957085814807e-03 -4.63026868044628e-04 -2.17239210442179e-01 -8.89160181639224e-01 -2.17239210442179e-01 -8.89160181639224e-01  2.08957085814807e-03 -4.63026868044628e-04
 5.90500000000000e+10  2.07272494278637e-03 -4.93886957266642e-04 -2.32761028224769e-01 -8.85175401947645e-01 -2.32761028224769e-01 -8.85175401947645e-01  2.07272494278637e-03 -4.93886957266642e-04
 5.91000000000000e+10  2.05481079849598e-03 -5.24135281139618e-04 -2.48209918351534e-01 -8.80919711465085e-01 -2.48209918351534e-01 -8.80919711465085e-01  2.05481079849598e-03 -5.24135281139618e-04
 5.91500000000000e+10  2.03585060373917e-03 -5.53734883788381e-04 -2.63581153358582e-01 -8.76394442083439e-01 -2.63581153358582e-01 -8.76394442083439e-01  2.03585060373917e-03 -5.53734883788381e-04
 5.92000000000000e+10  2.01586781473615e-03 -5.82649612090347e-04 -2.78870030057631e-01 -8.71601008172975e-01 -2.78870030057631e-01 -8.71601008172975e-01  2.01586781473615e-03 -5.82649612090347e-04
 5.92500000000000e+10  1.99488713645359e-03 -6.10844159828023e-04 -2.94071870974647e-01 -8.66540906140783e-01 -2.94071870974647e-01 -8.66540906140783e-01  1.99488713645359e-03 -6.10844159828023e-04
 5.93000000000000e+10  1.97293449206720e-03 -6.38284110793965e-04 -3.09182025780399e-01 -8.61215713964174e-01 -3.09182025780399e-01 -8.61215713964174e-01  1.97293449206720e-03 -6.38284110793965e-04
 5.93500000000000e+10  1.95003699093850e-03 -6.64935980796635e-04 -3.24195872712615e-01 -8.55627090699120e-01 -3.24195872712615e-01 -8.55627090699120e-01  1.95003699093850e-03 -6.64935980796635e-04
 5.94000000000000e+10  1.92622289514409e-03 -6.90767258514990e-04 -3.39108819989203e-01 -8.49776775963933e-01 -3.39108819989203e-01 -8.49776775963933e-01  1.92622289514409e-03 -6.90767258514990e-04
 5.94500000000000e+10  1.90152158459791e-03 -7.15746445152645e-04 -3.53916307212230e-01 -8.43666589398298e-01 -3.53916307212230e-01 -8.43666589398298e-01  1.90152158459791e-03 -7.15746445152645e-04
 5.95000000000000e+10  1.87596352081127e-03 -7.39843092842557e-04 -3.68613806762101e-01 -8.37298430097853e-01 -3.68613806762101e-01 -8.37298430097853e-01  1.87596352081127e-03 -7.39843092842557e-04
 5.95500000000000e+10  1.84958020933424e-03 -7.63027841756397e-04 -3.83196825181610e-01 -8.30674276024496e-01 -3.83196825181610e-01 -8.30674276024496e-01  1.84958020933424e-03 -7.63027841756397e-04
 5.96000000000000e+10  1.82240416092473e-03 -7.85272455872109e-04 -3.97660904549360e-01 -8.23796183392587e-01 -3.97660904549360e-01 -8.23796183392587e-01  1.82240416092473e-03 -7.85272455872109e-04
 5.96500000000000e+10  1.79446885149358e-03 -8.06549857357417e-04 -4.12001623842221e-01 -8.16666286031231e-01 -4.12001623842221e-01 -8.16666286031231e-01  1.79446885149358e-03 -8.06549857357417e-04
 5.97000000000000e+10  1.76580868087452e-03 -8.26834159526098e-04 -4.26214600286337e-01 -8.09286794722857e-01 -4.26214600286337e-01 -8.09286794722857e-01  1.76580868087452e-03 -8.26834159526098e-04
 5.97500000000000e+10  1.73645893047021e-03 -8.46100698328495e-04 -4.40295490696283e-01 -8.01659996518288e-01 -4.40295490696283e-01 -8.01659996518288e-01  1.73645893047021e-03 -8.46100698328495e-04
 5.98000000000000e+10  1.70645571982603e-03 -8.64326062335977e-04 -4.54239992802006e-01 -7.93788254028501e-01 -4.54239992802006e-01 -7.93788254028501e-01  1.70645571982603e-03 -8.64326062335977e-04
 5.98500000000000e+10  1.67583596218556e-03 -8.81488121184878e-04 -4.68043846563117e-01 -7.85674004693301e-01 -4.68043846563117e-01 -7.85674004693301e-01  1.67583596218556e-03 -8.81488121184878e-04
 5.99000000000000e+10  1.64463731908156e-03 -8.97566052443998e-04 -4.81702835470057e-01 -7.77319760027187e-01 -4.81702835470057e-01 -7.77319760027187e-01  1.64463731908156e-03 -8.97566052443998e-04
 5.99500000000000e+10  1.61289815402004e-03 -9.12540366873561e-04 -4.95212787831922e-01 -7.68728104842522e-01 -4.95212787831922e-01 -7.68728104842522e-01  1.61289815402004e-03 -9.12540366873561e-04
 6.00000000000000e+10  1.58065748531156e-03 -9.26392932045054e-04 -5.08569578050363e-01 -7.59901696450375e-01 -5.08569578050363e-01 -7.59901696450375e-01  1.58065748531156e-03 -9.26392932045054e-04
 6.00500000000000e+10  1.54795493811166e-03 -9.39106994293432e-04 -5.21769127879296e-01 -7.50843263839199e-01 -5.21769127879296e-01 -7.50843263839199e-01  1.54795493811166e-03 -9.39106994293432e-04
 6.01000000000000e+10  1.51483069572467e-03 -9.50667198974274e-04 -5.34807407669952e-01 -7.41555606831645e-01 -5.34807407669952e-01 -7.41555606831645e-01  1.51483069572467e-03 -9.50667198974274e-04
 6.01500000000000e+10  1.48132545023484e-03 -9.61059609002579e-04 -5.47680437600980e-01 -7.32041595219721e-01 -5.47680437600980e-01 -7.32041595219721e-01  1.48132545023484e-03 -9.61059609002579e-04
 6.02000000000000e+10  1.44748035252328e-03 -9.70271721649938e-04 -5.60384288893141e-01 -7.22304167878618e-01 -5.60384288893141e-01 -7.22304167878618e-01  1.44748035252328e-03 -9.70271721649938e-04
 6.02500000000000e+10  1.41333696173256e-03 -9.78292483580732e-04 -5.72915085008270e-01 -7.12346331859437e-01 -5.72915085008270e-01 -7.12346331859437e-01  1.41333696173256e-03 -9.78292483580732e-04
 6.03000000000000e+10  1.37893719424090e-03 -9.85112304107623e-04 -5.85269002832128e-01 -7.02171161461109e-01 -5.85269002832128e-01 -7.02171161461109e-01  1.37893719424090e-03 -9.85112304107623e-04
 6.03500000000000e+10  1.34432327220887e-03 -9.90723066652849e-04 -5.97442273840759e-01 -6.91781797281811e-01 -5.97442273840759e-01 -6.91781797281811e-01  1.34432327220887e-03 -9.90723066652849e-04
 6.04000000000000e+10  1.30953767176194e-03 -9.95118138399192e-04 -6.09431185250080e-01 -6.81181445250106e-01 -6.09431185250080e-01 -6.81181445250106e-01  1.30953767176194e-03 -9.95118138399192e-04
 6.04500000000000e+10  1.27462307087163e-03 -9.98292378121373e-04 -6.21232081148211e-01 -6.70373375636207e-01 -6.21232081148211e-01 -6.70373375636207e-01  1.27462307087163e-03 -9.98292378121373e-04
 6.05000000000000e+10  1.23962229699974e-03 -1.00024214218612e-03 -6.32841363610344e-01 -6.59360922043575e-01 -6.32841363610344e-01 -6.59360922043575e-01  1.23962229699974e-03 -1.00024214218612e-03
 6.05500000000000e+10  1.20457827457023e-03 -1.00096528871683e-03 -6.44255493795705e-01 -6.48147480381222e-01 -6.44255493795705e-01 -6.48147480381222e-01  1.20457827457023e-03 -1.00096528871683e-03
 6.06000000000000e+10  1.16953397233286e-03 -1.00046117991554e-03 -6.55470993026352e-01 -6.36736507816979e-01 -6.55470993026352e-01 -6.36736507816979e-01  1.16953397233286e-03 -1.00046117991554e-03
 6.06500000000000e+10  1.13453235068230e-03 -9.98730682541408e-04 -6.66484443847410e-01 -6.25131521712128e-01 -6.66484443847410e-01 -6.25131521712128e-01  1.13453235068230e-03 -9.98730682541408e-04
 6.07000000000000e+10  1.09961630899857e-03 -9.95776166544316e-04 -6.77292491068471e-01 -6.13336098537642e-01 -6.77292491068471e-01 -6.13336098537642e-01  1.09961630899857e-03 -9.95776166544316e-04
 6.07500000000000e+10  1.06482863307342e-03 -9.91601501856736e-04 -6.87891842785809e-01 -6.01353872772444e-01 -6.87891842785809e-01 -6.01353872772444e-01  1.06482863307342e-03 -9.91601501856736e-04
 6.08000000000000e+10  1.03021194268513e-03 -9.86212053347314e-04 -6.98279271385138e-01 -5.89188535783929e-01 -6.98279271385138e-01 -5.89188535783929e-01  1.03021194268513e-03 -9.86212053347314e-04
 6.08500000000000e+10  9.95808639388695e-04 -9.79614673942667e-04 -7.08451614524545e-01 -5.76843834691219e-01 -7.08451614524545e-01 -5.76843834691219e-01  9.95808639388695e-04 -9.79614673942667e-04
 6.09000000000000e+10  9.61660854582845e-04 -9.71817695927284e-04 -7.18405776097360e-01 -5.64323571211371e-01 -7.18405776097360e-01 -5.64323571211371e-01  9.61660854582845e-04 -9.71817695927284e-04
 6.09500000000000e+10  9.27810397919610e-04 -9.62830920431163e-04 -7.28138727174611e-01 -5.51631600489004e-01 -7.28138727174611e-01 -5.51631600489004e-01  9.27810397919610e-04 -9.62830920431163e-04
 6.10000000000000e+10  8.94298706117718e-04 -9.52665605119343e-04 -7.37647506926863e-01 -5.38771829909588e-01 -7.37647506926863e-01 -5.38771829909588e-01  8.94298706117718e-04 -9.52665605119343e-04
 6.10500000000000e+10  8.61166792244138e-04 -9.41334450098552e-04 -7.46929223525038e-01 -5.25748217896900e-01 -7.46929223525038e-01 -5.25748217896900e-01  8.61166792244138e-04 -9.41334450098552e-04
 6.11000000000000e+10  8.28455195524859e-04 -9.28851582058203e-04 -7.55981055020051e-01 -5.12564772694885e-01 -7.55981055020051e-01 -5.12564772694885e-01  8.28455195524859e-04 -9.28851582058203e-04
 6.11500000000000e+10  7.96203931746120e-04 -9.15232536666378e-04 -7.64800250200927e-01 -4.99225551134392e-01 -7.64800250200927e-01 -4.99225551134392e-01  7.96203931746120e-04 -9.15232536666378e-04
 6.12000000000000e+10  7.64452444307799e-04 -9.00494239241562e-04 -7.73384129431187e-01 -4.85734657385081e-01 -7.73384129431187e-01 -4.85734657385081e-01  7.64452444307799e-04 -9.00494239241562e-04
 6.12500000000000e+10  7.33239555988139e-04 -8.84654983725719e-04 -7.81730085463181e-01 -4.72096241692983e-01 -7.81730085463181e-01 -4.72096241692983e-01  7.33239555988139e-04 -8.84654983725719e-04
 6.13000000000000e+10  7.02603421478679e-04 -8.67734409983045e-04 -7.89835584230193e-01 -4.58314499104004e-01 -7.89835584230193e-01 -4.58314499104004e-01  7.02603421478679e-04 -8.67734409983045e-04
 6.13500000000000e+10  6.72581480747623e-04 -8.49753479453838e-04 -7.97698165616029e-01 -4.44393668173830e-01 -7.97698165616029e-01 -4.44393668173830e-01  6.72581480747623e-04 -8.49753479453838e-04
 6.14000000000000e+10  6.43210413289089e-04 -8.30734449193259e-04 -8.05315444201864e-01 -4.30338029664605e-01 -8.05315444201864e-01 -4.30338029664605e-01  6.43210413289089e-04 -8.30734449193259e-04
 6.14500000000000e+10  6.14526093313173e-04 -8.10700844327045e-04 -8.12685109990131e-01 -4.16151905228779e-01 -8.12685109990131e-01 -4.16151905228779e-01  6.14526093313173e-04 -8.10700844327045e-04
 6.15000000000000e+10  5.86563545932479e-04 -7.89677428958357e-04 -8.19804929105221e-01 -4.01839656080547e-01 -8.19804929105221e-01 -4.01839656080547e-01  5.86563545932479e-04 -7.89677428958357e-04
 6.15500000000000e+10  5.59356904398171e-04 -7.67690175561733e-04 -8.26672744470781e-01 -3.87405681655272e-01 -8.26672744470781e-01 -3.87405681655272e-01  5.59356904398171e-04 -7.67690175561733e-04
 6.16000000000000e+10  5.32939368437779e-04 -7.44766232901594e-04 -8.33286476463411e-01 -3.72854418257305e-01 -8.33286476463411e-01 -3.72854418257305e-01  5.32939368437779e-04 -7.44766232901594e-04
 6.16500000000000e+10  5.07343163745844e-04 -7.20933892516159e-04 -8.39644123542542e-01 -3.58190337696656e-01 -8.39644123542542e-01 -3.58190337696656e-01  5.07343163745844e-04 -7.20933892516159e-04
 6.17000000000000e+10  4.82599502676358e-04 -6.96222553805985e-04 -8.45743762856346e-01 -3.43417945914842e-01 -8.45743762856346e-01 -3.43417945914842e-01  4.82599502676358e-04 -6.96222553805985e-04
 6.17500000000000e+10  4.58738546185892e-04 -6.70662687772438e-04 -8.51583550823440e-01 -3.28541781600439e-01 -8.51583550823440e-01 -3.28541781600439e-01  4.58738546185892e-04 -6.70662687772438e-04
 6.18000000000000e+10  4.35789367072361e-04 -6.44285799449552e-04 -8.57161723690228e-01 -3.13566414794728e-01 -8.57161723690228e-01 -3.13566414794728e-01  4.35789367072361e-04 -6.44285799449552e-04
 6.18500000000000e+10  4.13779914555396e-04 -6.17124389075667e-04 -8.62476598063750e-01 -2.98496445487811e-01 -8.62476598063750e-01 -2.98496445487811e-01  4.13779914555396e-04 -6.17124389075667e-04
 6.19000000000000e+10  3.92736980241726e-04 -5.89211912053195e-04 -8.67526571419800e-01 -2.83336502205710e-01 -8.67526571419800e-01 -2.83336502205710e-01  3.92736980241726e-04 -5.89211912053195e-04
 6.19500000000000e+10  3.72686165515388e-04 -5.60582737745243e-04 -8.72310122586238e-01 -2.68091240588818e-01 -8.72310122586238e-01 -2.68091240588818e-01  3.72686165515388e-04 -5.60582737745243e-04
 6.20000000000000e+10  3.53651850393920e-04 -5.31272107160552e-04 -8.76825812201281e-01 -2.52765341962212e-01 -8.76825812201281e-01 -2.52765341962212e-01  3.53651850393920e-04 -5.31272107160552e-04
 6.20500000000000e+10  3.35657163888640e-04 -5.01316089578060e-04 -8.81072283146693e-01 -2.37363511898153e-01 -8.81072283146693e-01 -2.37363511898153e-01  3.35657163888640e-04 -5.01316089578060e-04
 6.21000000000000e+10  3.18723955902944e-04 -4.70751538164826e-04 -8.85048260955689e-01 -2.21890478771366e-01 -8.85048260955689e-01 -2.21890478771366e-01  3.18723955902944e-04 -4.70751538164826e-04
 6.21500000000000e+10  3.02872770706035e-04 -4.39616044642263e-04 -8.88752554195492e-01 -2.06350992307356e-01 -8.88752554195492e-01 -2.06350992307356e-01  3.02872770706035e-04 -4.39616044642263e-04
 6.22000000000000e+10  2.88122822010659e-04 -4.07947893055878e-04 -8.92184054824346e-01 -1.90749822124460e-01 -8.92184054824346e-01 -1.90749822124460e-01  2.88122822010659e-04 -4.07947893055878e-04
 6.22500000000000e+10  2.74491969688255e-04 -3.75786012705603e-04 -8.95341738522967e-01 -1.75091756269782e-01 -8.95341738522967e-01 -1.75091756269782e-01  2.74491969688255e-04 -3.75786012705603e-04
 6.23000000000000e+10  2.61996698147570e-04 -3.43169930294668e-04 -8.98224665000257e-01 -1.59381599749722e-01 -8.98224665000257e-01 -1.59381599749722e-01  2.61996698147570e-04 -3.43169930294668e-04
 6.23500000000000e+10  2.50652096404432e-04 -3.10139721355674e-04 -9.00831978273246e-01 -1.43624173055380e-01 -9.00831978273246e-01 -1.43624173055380e-01  2.50652096404432e-04 -3.10139721355674e-04
 6.24000000000000e+10  2.40471839864889e-04 -2.76735961013789e-04 -9.03162906921128e-01 -1.27824310683415e-01 -9.03162906921128e-01 -1.27824310683415e-01  2.40471839864889e-04 -2.76735961013789e-04
 6.24500000000000e+10  2.31468173846431e-04 -2.42999674147169e-04 -9.05216764313362e-01 -1.11986859652681e-01 -9.05216764313362e-01 -1.11986859652681e-01  2.31468173846431e-04 -2.42999674147169e-04
 6.25000000000000e+10  2.23651898854157e-04 -2.08972285006308e-04 -9.06992948811735e-01 -9.61166780172133e-02 -9.06992948811735e-01 -9.61166780172133e-02  2.23651898854157e-04 -2.08972285006308e-04
 6.25500000000000e+10  2.17032357631900e-04 -1.74695566353684e-04 -9.08490943946351e-01 -8.02186333759463e-02 -9.08490943946351e-01 -8.02186333759463e-02  2.17032357631900e-04 -1.74695566353684e-04
 6.26000000000000e+10  2.11617424002443e-04 -1.40211588186671e-04 -9.09710318565471e-01 -6.42976013796889e-02 -9.09710318565471e-01 -6.42976013796889e-02  2.11617424002443e-04 -1.40211588186671e-04
 6.26500000000000e+10  2.07413493511190e-04 -1.05562666106058e-04 -9.10650726959187e-01 -4.83584642357148e-02 -9.10650726959187e-01 -4.83584642357148e-02  2.07413493511190e-04 -1.05562666106058e-04
 6.27000000000000e+10  2.04425475883123e-04 -7.07913093941965e-05 -9.11311908956875e-01 -3.24061092105578e-02 -9.11311908956875e-01 -3.24061092105578e-02  2.04425475883123e-04 -7.07913093941965e-05
 6.27500000000000e+10  2.02656789303842e-04 -3.59401688658555e-05 -9.11693689998400e-01 -1.64454271313120e-02 -9.11693689998400e-01 -1.64454271313120e-02  2.02656789303842e-04 -3.59401688658555e-05
 6.28000000000000e+10  2.02109356527938e-04 -1.05198455637666e-06 -9.11795981179071e-01 -4.81310886120535e-04 -9.11795981179071e-01 -4.81310886120535e-04  2.02109356527938e-04 -1.05198455637666e-06
 6.28500000000000e+10  2.02783602824794e-04  3.38304666893798e-05 -9.11618779268312e-01  1.54813460759636e-02 -9.11618779268312e-01  1.54813460759636e-02  2.02783602824794e-04  3.38304666893798e-05
 6.29000000000000e+10  2.04678455756591e-04  6.86644236624012e-05 -9.11162166702062e-01  3.14376512450366e-02 -9.11162166702062e-01  3.14376512450366e-02  2.04678455756591e-04  6.86644236624012e-05
 6.29500000000000e+10  2.07791346795252e-04  1.03407193205334e-04 -9.10426311548903e-01  4.73827145500230e-02 -9.10426311548903e-01  4.73827145500230e-02  2.07791346795252e-04  1.03407193205334e-04
 6.30000000000000e+10  2.12118214771912e-04  1.38016202534228e-04 -9.09411467449927e-01  6.33116498574001e-02 -9.09411467449927e-01  6.33116498574001e-02  2.12118214771912e-04  1.38016202534228e-04
 6.30500000000000e+10  2.17653511155173e-04  1.72449051402306e-04 -9.08117973532369e-01  7.92195764686288e-02 -9.08117973532369e-01  7.92195764686288e-02  2.17653511155173e-04  1.72449051402306e-04
 6.31000000000000e+10  2.24390207152376e-04  2.06663564041661e-04 -9.06546254297031e-01  9.51016206157171e-02 -9.06546254297031e-01  9.51016206157171e-02  2.24390207152376e-04  2.06663564041661e-04
 6.31500000000000e+10  2.32319802622905e-04  2.40617840819378e-04 -9.04696819479535e-01  1.10952916954525e-01 -9.04696819479535e-01  1.10952916954525e-01  2.32319802622905e-04  2.40617840819378e-04
 6.32000000000000e+10  2.41432336795191e-04  2.74270309544656e-04 -9.02570263885447e-01  1.26768610055329e-01 -9.02570263885447e-01  1.26768610055329e-01  2.41432336795191e-04  2.74270309544656e-04
 6.32500000000000e+10  2.51716400769679e-04  3.07579776364433e-04 -9.00167267199337e-01  1.42543855890196e-01 -9.00167267199337e-01  1.42543855890196e-01  2.51716400769679e-04  3.07579776364433e-04
 6.33000000000000e+10  2.63159151796557e-04  3.40505476184687e-04 -8.97488593767822e-01  1.58273823316703e-01 -8.97488593767822e-01  1.58273823316703e-01  2.63159151796557e-04  3.40505476184687e-04
 6.33500000000000e+10  2.75746329306857e-04  3.73007122556353e-04 -8.94535092356672e-01  1.73953695557546e-01 -8.94535092356672e-01  1.73953695557546e-01  2.75746329306857e-04  3.73007122556353e-04
 6.34000000000000e+10  2.89462272679623e-04  4.05044956963923e-04 -8.91307695882048e-01  1.89578671675610e-01 -8.91307695882048e-01  1.89578671675610e-01  2.89462272679623e-04  4.05044956963923e-04
 6.34500000000000e+10  3.04289940720419e-04  4.36579797457645e-04 -8.87807421115969e-01  2.05143968044004e-01 -8.87807421115969e-01  2.05143968044004e-01  3.04289940720419e-04  4.36579797457645e-04
 6.35000000000000e+10  3.20210932829289e-04  4.67573086568534e-04 -8.84035368366086e-01  2.20644819810648e-01 -8.84035368366086e-01  2.20644819810648e-01  3.20210932829289e-04  4.67573086568534e-04
 6.35500000000000e+10  3.37205511830413e-04  4.97986938448581e-04 -8.79992721129883e-01  2.36076482356925e-01 -8.79992721129883e-01  2.36076482356925e-01  3.37205511830413e-04  4.97986938448581e-04
 6.36000000000000e+10  3.55252628435684e-04  5.27784185178049e-04 -8.75680745723390e-01  2.51434232750026e-01 -8.75680745723390e-01  2.51434232750026e-01  3.55252628435684e-04  5.27784185178049e-04
 6.36500000000000e+10  3.74329947312321e-04  5.56928422183134e-04 -8.71100790884556e-01  2.66713371188422e-01 -8.71100790884556e-01  2.66713371188422e-01  3.74329947312321e-04  5.56928422183134e-04
 6.37000000000000e+10  3.94413874720324e-04  5.85384052709412e-04 -8.66254287351372e-01  2.81909222440143e-01 -8.66254287351372e-01  2.81909222440143e-01  3.94413874720324e-04  5.85384052709412e-04
 6.37500000000000e+10  4.15479587688441e-04  6.13116331295252e-04 -8.61142747414916e-01  2.97017137273332e-01 -8.61142747414916e-01  2.97017137273332e-01  4.15479587688441e-04  6.13116331295252e-04
 6.38000000000000e+10  4.37501064690834e-04  6.40091406193371e-04 -8.55767764447406e-01  3.12032493878714e-01 -8.55767764447406e-01  3.12032493878714e-01  4.37501064690834e-04  6.40091406193371e-04
 6.38500000000000e+10  4.60451117785611e-04  6.66276360688268e-04 -8.50131012405483e-01  3.26950699283456e-01 -8.50131012405483e-01  3.26950699283456e-01  4.60451117785611e-04  6.66276360688268e-04
 6.39000000000000e+10  4.84301426178595e-04  6.91639253259142e-04 -8.44234245308797e-01  3.41767190756068e-01 -8.44234245308797e-01  3.41767190756068e-01  4.84301426178595e-04  6.91639253259142e-04
 6.39500000000000e+10  5.09022571167313e-04  7.16149156538835e-04 -8.38079296694141e-01  3.56477437201846e-01 -8.38079296694141e-01  3.56477437201846e-01  5.09022571167313e-04  7.16149156538835e-04
 6.40000000000000e+10  5.34584072424649e-04  7.39776195022722e-04 -8.31668079045221e-01  3.71076940548505e-01 -8.31668079045221e-01  3.71076940548505e-01  5.34584072424649e-04  7.39776195022722e-04
 6.40500000000000e+10  5.60954425576639e-04  7.62491581479350e-04 -8.25002583198309e-01  3.85561237121512e-01 -8.25002583198309e-01  3.85561237121512e-01  5.60954425576639e-04  7.62491581479350e-04
 6.41000000000000e+10  5.88101141027791e-04  7.84267652020758e-04 -8.18084877723939e-01  3.99925899008703e-01 -8.18084877723939e-01  3.99925899008703e-01  5.88101141027791e-04  7.84267652020758e-04
 6.41500000000000e+10  6.15990783985895e-04  8.05077899787956e-04 -8.10917108284826e-01  4.14166535413808e-01 -8.10917108284826e-01  4.14166535413808e-01  6.15990783985895e-04  8.05077899787956e-04
 6.42000000000000e+10  6.44589015638128e-04  8.24897007211907e-04 -8.03501496970213e-01  4.28278793998470e-01 -8.03501496970213e-01  4.28278793998470e-01  6.44589015638128e-04  8.24897007211907e-04
 6.42500000000000e+10  6.73860635426646e-04  8.43700876809621e-04 -7.95840341606886e-01  4.42258362212268e-01 -7.95840341606886e-01  4.42258362212268e-01  6.73860635426646e-04  8.43700876809621e-04
 6.43000000000000e+10  7.03769624371971e-04  8.61466660478397e-04 -7.87936015047017e-01  4.56100968610445e-01 -7.87936015047017e-01  4.56100968610445e-01  7.03769624371971e-04  8.61466660478397e-04
 6.43500000000000e+10  7.34279189390912e-04  8.78172787253552e-04 -7.79790964433108e-01  4.69802384158852e-01 -7.79790964433108e-01  4.69802384158852e-01  7.34279189390912e-04  8.78172787253552e-04
 6.44000000000000e+10  7.65351808554760e-04  8.93798989493631e-04 -7.71407710440219e-01  4.83358423525789e-01 -7.71407710440219e-01  4.83358423525789e-01  7.65351808554760e-04  8.93798989493631e-04
 6.44500000000000e+10  7.96949277231270e-04  9.08326327463774e-04 -7.62788846495759e-01  4.96764946360251e-01 -7.62788846495759e-01  4.96764946360251e-01  7.96949277231270e-04  9.08326327463774e-04
 6.45000000000000e+10  8.29032755054529e-04  9.21737212285720e-04 -7.53937037977048e-01  5.10017858556288e-01 -7.53937037977048e-01  5.10017858556288e-01  8.29032755054529e-04  9.21737212285720e-04
 6.45500000000000e+10  8.61562813664615e-04  9.34015427227807e-04 -7.44855021386928e-01  5.23113113503005e-01 -7.44855021386928e-01  5.23113113503005e-01  8.61562813664615e-04  9.34015427227807e-04
 6.46000000000000e+10  8.94499485158463e-04  9.45146147308248e-04 -7.35545603507637e-01  5.36046713319916e-01 -7.35545603507637e-01  5.36046713319916e-01  8.94499485158463e-04  9.45146147308248e-04
 6.46500000000000e+10  9.27802311192100e-04  9.55115957188585e-04 -7.26011660533251e-01  5.48814710077185e-01 -7.26011660533251e-01  5.48814710077185e-01  9.27802311192100e-04  9.55115957188585e-04
 6.47000000000000e+10  9.61430392674420e-04  9.63912867335671e-04 -7.16256137180966e-01  5.61413207000404e-01 -7.16256137180966e-01  5.61413207000404e-01  9.61430392674420e-04  9.63912867335671e-04
 6.47500000000000e+10  9.95342439991028e-04  9.71526328432276e-04 -7.06282045781435e-01  5.73838359659607e-01 -7.06282045781435e-01  5.73838359659607e-01  9.95342439991028e-04  9.71526328432276e-04
 6.48000000000000e+10  1.02949682369672e-03  9.77947244019979e-04 -6.96092465348518e-01  5.86086377142064e-01 -6.96092465348518e-01  5.86086377142064e-01  1.02949682369672e-03  9.77947244019979e-04
 6.48500000000000e+10  1.06385162561459e-03  9.83167981358158e-04 -6.85690540628671e-01  5.98153523208562e-01 -6.85690540628671e-01  5.98153523208562e-01  1.06385162561459e-03  9.83167981358158e-04
 6.49000000000000e+10  1.09836469027810e-03  9.87182380486286e-04 -6.75079481130335e-01  6.10036117432773e-01 -6.75079481130335e-01  6.10036117432773e-01  1.09836469027810e-03  9.87182380486286e-04
 6.49500000000000e+10  1.13299367665426e-03  9.89985761479924e-04 -6.64262560133533e-01  6.21730536323424e-01 -6.64262560133533e-01  6.21730536323424e-01  1.13299367665426e-03  9.89985761479924e-04
 6.50000000000000e+10  1.16769611008371e-03  9.91574929890439e-04 -6.53243113680076e-01  6.33233214428868e-01 -6.53243113680076e-01  6.33233214428868e-01  1.16769611008371e-03  9.91574929890439e-04
 6.50500000000000e+10  1.20242943437398e-03  9.91948180362479e-04 -6.42024539544637e-01  6.44540645423734e-01 -6.42024539544637e-01  6.44540645423734e-01  1.20242943437398e-03  9.91948180362479e-04
 6.51000000000000e+10  1.23715106398214e-03  9.91105298425985e-04 -6.30610296187015e-01  6.55649383177363e-01 -6.30610296187015e-01  6.55649383177363e-01  1.23715106398214e-03  9.91105298425985e-04
 6.51500000000000e+10  1.27181843622348e-03  9.89047560460177e-04 -6.19003901685903e-01  6.66556042803673e-01 -6.19003901685903e-01  6.66556042803673e-01  1.27181843622348e-03  9.89047560460177e-04
 6.52000000000000e+10  1.30638906344070e-03  9.85777731829973e-04 -6.07208932654579e-01  6.77257301692082e-01 -6.07208932654579e-01  6.77257301692082e-01  1.30638906344070e-03  9.85777731829973e-04
 6.52500000000000e+10  1.34082058507156e-03  9.81300063197476e-04 -5.95229023138684e-01  6.87749900519322e-01 -5.95229023138684e-01  6.87749900519322e-01  1.34082058507156e-03  9.81300063197476e-04
 6.53000000000000e+10  1.37507081954964e-03  9.75620285013968e-04 -5.83067863496595e-01  6.98030644241673e-01 -5.83067863496595e-01  6.98030644241673e-01  1.37507081954964e-03  9.75620285013968e-04
 6.53500000000000e+10  1.40909781597569e-03  9.68745600198501e-04 -5.70729199262630e-01  7.08096403067434e-01 -5.70729199262630e-01  7.08096403067434e-01  1.40909781597569e-03  9.68745600198501e-04
 6.54000000000000e+10  1.44285990549517e-03  9.60684675013629e-04 -5.58216829993518e-01  7.17944113409244e-01 -5.58216829993518e-01  7.17944113409244e-01  1.44285990549517e-03  9.60684675013629e-04
 6.54500000000000e+10  1.47631575232075e-03  9.51447628149266e-04 -5.45534608098392e-01  7.27570778816064e-01 -5.45534608098392e-01  7.27570778816064e-01  1.47631575232075e-03  9.51447628149266e-04
 6.55000000000000e+10  1.50942440433518e-03  9.41046018027555e-04 -5.32686437652765e-01  7.36973470884447e-01 -5.32686437652765e-01  7.36973470884447e-01  1.50942440433518e-03  9.41046018027555e-04
 6.55500000000000e+10  1.54214534321440e-03  9.29492828346416e-04 -5.19676273196769e-01  7.46149330148873e-01 -5.19676273196769e-01  7.46149330148873e-01  1.54214534321440e-03  9.29492828346416e-04
 6.56000000000000e+10  1.57443853400877e-03  9.16802451878739e-04 -5.06508118518119e-01  7.55095566950848e-01 -5.06508118518119e-01  7.55095566950848e-01  1.57443853400877e-03  9.16802451878739e-04
 6.56500000000000e+10  1.60626447412145e-03  9.02990672547350e-04 -4.93186025420076e-01  7.63809462286534e-01 -4.93186025420076e-01  7.63809462286534e-01  1.60626447412145e-03  9.02990672547350e-04
 6.57000000000000e+10  1.63758424162486e-03  8.88074645798352e-04 -4.79714092474863e-01  7.72288368632636e-01 -4.79714092474863e-01  7.72288368632636e-01  1.63758424162486e-03  8.88074645798352e-04
 6.57500000000000e+10  1.66835954285533e-03  8.72072877297699e-04 -4.66096463762862e-01  7.80529710750304e-01 -4.66096463762862e-01  7.80529710750304e-01  1.66835954285533e-03  8.72072877297699e-04
 6.58000000000000e+10  1.69855275922822e-03  8.55005199976639e-04 -4.52337327598091e-01  7.88530986466760e-01 -4.52337327598091e-01  7.88530986466760e-01  1.69855275922822e-03  8.55005199976639e-04
 6.58500000000000e+10  1.72812699321639e-03  8.36892749454719e-04 -4.38440915240156e-01  7.96289767434522e-01 -4.38440915240156e-01  7.96289767434522e-01  1.72812699321639e-03  8.36892749454719e-04
 6.59000000000000e+10  1.75704611343482e-03  8.17757937871394e-04 -4.24411499593283e-01  8.03803699867876e-01 -4.24411499593283e-01  8.03803699867876e-01  1.75704611343482e-03  8.17757937871394e-04
 6.59500000000000e+10  1.78527479877855e-03  7.97624426157951e-04 -4.10253393892681e-01  8.11070505256453e-01 -4.10253393892681e-01  8.11070505256453e-01  1.78527479877855e-03  7.97624426157951e-04
 6.60000000000000e+10  1.81277858155653e-03  7.76517094783980e-04 -3.95970950378749e-01  8.18087981055644e-01 -3.95970950378749e-01  8.18087981055644e-01  1.81277858155653e-03  7.76517094783980e-04
 6.60500000000000e+10  1.83952388957287e-03  7.54462013015547e-04 -3.81568558959419e-01  8.24854001353704e-01 -3.81568558959419e-01  8.24854001353704e-01  1.83952388957287e-03  7.54462013015547e-04
 6.61000000000000e+10  1.86547808710007e-03  7.31486406721471e-04 -3.67050645861157e-01  8.31366517515279e-01 -3.67050645861157e-01  8.31366517515279e-01  1.86547808710007e-03  7.31486406721471e-04
 6.61500000000000e+10  1.89060951469807e-03  7.07618624769427e-04 -3.52421672268963e-01  8.37623558801209e-01 -3.52421672268963e-01  8.37623558801209e-01  1.89060951469807e-03  7.07618624769427e-04
 6.62000000000000e+10  1.91488752782671e-03  6.82888104051104e-04 -3.37686132955816e-01  8.43623232964398e-01 -3.37686132955816e-01  8.43623232964398e-01  1.91488752782671e-03  6.82888104051104e-04
 6.62500000000000e+10  1.93828253420823e-03  6.57325333181767e-04 -3.22848554902010e-01  8.49363726821573e-01 -3.22848554902010e-01  8.49363726821573e-01  1.93828253420823e-03  6.57325333181767e-04
 6.63000000000000e+10  1.96076602989105e-03  6.30961814917140e-04 -3.07913495904696e-01  8.54843306800789e-01 -3.07913495904696e-01  8.54843306800789e-01  1.96076602989105e-03  6.30961814917140e-04
 6.63500000000000e+10  1.98231063397339e-03  6.03830027335241e-04 -2.92885543178238e-01  8.60060319464454e-01 -2.92885543178238e-01  8.60060319464454e-01  1.98231063397339e-03  6.03830027335241e-04
 6.64000000000000e+10  2.00289012194264e-03  5.75963383830146e-04 -2.77769311945634e-01  8.65013192007789e-01 -2.77769311945634e-01  8.65013192007789e-01  2.00289012194264e-03  5.75963383830146e-04
 6.64500000000000e+10  2.02247945759088e-03  5.47396191967546e-04 -2.62569444021558e-01  8.69700432732513e-01 -2.62569444021558e-01  8.69700432732513e-01  2.02247945759088e-03  5.47396191967546e-04
 6.65000000000000e+10  2.04105482346781e-03  5.18163611252508e-04 -2.47290606387356e-01  8.74120631495661e-01 -2.47290606387356e-01  8.74120631495661e-01  2.04105482346781e-03  5.18163611252508e-04
 6.65500000000000e+10  2.05859364983360e-03  4.88301609861108e-04 -2.31937489758551e-01  8.78272460133359e-01 -2.31937489758551e-01  8.78272460133359e-01  2.05859364983360e-03  4.88301609861108e-04
 6.66000000000000e+10  2.07507464207558e-03  4.57846920389766e-04 -2.16514807145184e-01  8.82154672859455e-01 -2.16514807145184e-01  8.82154672859455e-01  2.07507464207558e-03  4.57846920389766e-04
 6.66500000000000e+10  2.09047780655861e-03  4.26836994676459e-04 -2.01027292405510e-01  8.85766106638876e-01 -2.01027292405510e-01  8.85766106638876e-01  2.09047780655861e-03  4.26836994676459e-04
 6.67000000000000e+10  2.10478447487290e-03  3.95309957748985e-04 -1.85479698793417e-01  8.89105681535617e-01 -1.85479698793417e-01  8.89105681535617e-01  2.10478447487290e-03  3.95309957748985e-04
 6.67500000000000e+10  2.11797732645542e-03  3.63304560957741e-04 -1.69876797500123e-01  8.92172401035224e-01 -1.69876797500123e-01  8.92172401035224e-01  2.11797732645542e-03  3.63304560957741e-04
 6.68000000000000e+10  2.13004040955298e-03  3.30860134349838e-04 -1.54223376190477e-01  8.94965352341710e-01 -1.54223376190477e-01  8.94965352341710e-01  2.13004040955298e-03  3.30860134349838e-04
 6.68500000000000e+10  2.14095916050336e-03  2.98016538343301e-04 -1.38524237534391e-01  8.97483706648805e-01 -1.38524237534391e-01  8.97483706648805e-01  2.14095916050336e-03  2.98016538343301e-04
 6.69000000000000e+10  2.15072042131200e-03  2.64814114761100e-04 -1.22784197733837e-01  8.99726719385446e-01 -1.22784197733837e-01  8.99726719385446e-01  2.15072042131200e-03  2.64814114761100e-04
 6.69500000000000e+10  2.15931245550169e-03  2.31293637284544e-04 -1.07008085045834e-01  9.01693730435455e-01 -1.07008085045834e-01  9.01693730435455e-01  2.15931245550169e-03  2.31293637284544e-04
 6.70000000000000e+10  2.16672496221661e-03  1.97496261387292e-04 -9.12007383018902e-02  9.03384164331334e-01 -9.12007383018902e-02  9.03384164331334e-01  2.16672496221661e-03  1.97496261387292e-04
 6.70500000000000e+10  2.17294908856472e-03  1.63463473811487e-04 -7.53670054243924e-02  9.04797530422111e-01 -7.53670054243924e-02  9.04797530422111e-01  2.17294908856472e-03  1.63463473811487e-04
 6.71000000000000e+10  2.17797744018166e-03  1.29237041647621e-04 -5.95117419403277e-02  9.05933423015201e-01 -5.95117419403277e-02  9.05933423015201e-01  2.17797744018166e-03  1.29237041647621e-04
 6.71500000000000e+10  2.18180409000539e-03  9.48589610810476e-05 -4.36398094928571e-02  9.06791521492236e-01 -4.36398094928571e-02  9.06791521492236e-01  2.18180409000539e-03  9.48589610810476e-05
 6.72000000000000e+10  2.18442458525111e-03  6.03714058677922e-05 -2.77560743511187e-02  9.07371590398834e-01 -2.77560743511187e-02  9.07371590398834e-01  2.18442458525111e-03  6.03714058677922e-05
 6.72500000000000e+10  2.18583595257658e-03  2.58166756029402e-05 -1.18654059188269e-02  9.07673479508274e-01 -1.18654059188269e-02  9.07673479508274e-01  2.18583595257658e-03  2.58166756029402e-05
 6.73000000000000e+10  2.18603670143420e-03 -8.76285615494969e-06  4.02732475799378e-03  9.07697123859075e-01  4.02732475799378e-03  9.07697123859075e-01  2.18603670143420e-03 -8.76285615494969e-06
 6.73500000000000e+10  2.18502682560423e-03 -4.33247938398157e-05  1.99172464835774e-02  9.07442543766455e-01  1.99172464835774e-02  9.07442543766455e-01  2.18502682560423e-03 -4.33247938398157e-05
 6.74000000000000e+10  2.18280780290805e-03 -7.78267718508152e-05  3.57994894049455e-02  9.06909844807678e-01  3.57994894049455e-02  9.06909844807678e-01  2.18280780290805e-03 -7.78267718508152e-05
 6.74500000000000e+10  2.17938259310364e-03 -1.12226506478003e-04  5.16691865038451e-02  9.06099217781296e-01  5.16691865038451e-02  9.06099217781296e-01  2.17938259310364e-03 -1.12226506478003e-04
 6.75000000000000e+10  2.17475563396345e-03 -1.46481847717280e-04  6.75214750876472e-02  9.05010938640293e-01  6.75214750876472e-02  9.05010938640293e-01  2.17475563396345e-03 -1.46481847717280e-04
 6.75500000000000e+10  2.16893283554258e-03 -1.80550830911252e-04  8.33514982788009e-02  9.03645368399167e-01  8.33514982788009e-02  9.03645368399167e-01  2.16893283554258e-03 -1.80550830911252e-04
 6.76000000000000e+10  2.16192157264331e-03 -2.14391728152870e-04  9.91544065023913e-02  9.02002953014970e-01  9.91544065023913e-02  9.02002953014970e-01  2.16192157264331e-03 -2.14391728152870e-04
 6.76500000000000e+10  2.15373067548504e-03 -2.47963099388464e-04  1.14925358971279e-01  9.00084223242343e-01  1.14925358971279e-01  9.00084223242343e-01  2.15373067548504e-03 -2.47963099388464e-04
 6.77000000000000e+10  2.14437041859307e-03 -2.81223843158002e-04  1.30659525168392e-01  8.97889794462610e-01  1.30659525168392e-01  8.97889794462610e-01  2.14437041859307e-03 -2.81223843158002e-04
 6.77500000000000e+10  2.13385250791849e-03 -3.14133246910355e-04  1.46352086325779e-01  8.95420366486967e-01  1.46352086325779e-01  8.95420366486967e-01  2.13385250791849e-03 -3.14133246910355e-04
 6.78000000000000e+10  2.12219006620621e-03 -3.46651036831789e-04  1.61998236899903e-01  8.92676723333827e-01  1.61998236899903e-01  8.92676723333827e-01  2.12219006620621e-03 -3.46651036831789e-04
 6.78500000000000e+10  2.10939761662971e-03 -3.78737427127018e-04  1.77593186042726e-01  8.89659732980419e-01  1.77593186042726e-01  8.89659732980419e-01  2.10939761662971e-03 -3.78737427127018e-04
 6.79000000000000e+10  2.09549106471203e-03 -4.10353168692291e-04  1.93132159068172e-01  8.86370347088682e-01  1.93132159068172e-01  8.86370347088682e-01  2.09549106471203e-03 -4.10353168692291e-04
 6.79500000000000e+10  2.08048767855610e-03 -4.41459597121081e-04  2.08610398913524e-01  8.82809600705563e-01  2.08610398913524e-01  8.82809600705563e-01  2.08048767855610e-03 -4.41459597121081e-04
 6.80000000000000e+10  2.06440606740835e-03 -4.72018679983566e-04  2.24023167595232e-01  8.78978611937815e-01  2.24023167595232e-01  8.78978611937815e-01  2.06440606740835e-03 -4.72018679983566e-04
 6.80500000000000e+10  2.04726615858370e-03 -5.01993063322353e-04  2.39365747658837e-01  8.74878581601372e-01  2.39365747658837e-01  8.74878581601372e-01  2.04726615858370e-03 -5.01993063322353e-04
 6.81000000000000e+10  2.02908917277840e-03 -5.31346117307263e-04  2.54633443622335e-01  8.70510792845451e-01  2.54633443622335e-01  8.70510792845451e-01  2.02908917277840e-03 -5.31346117307263e-04
 6.81500000000000e+10  2.00989759780279e-03 -5.60041980993571e-04  2.69821583412824e-01  8.65876610751449e-01  2.69821583412824e-01  8.65876610751449e-01  2.00989759780279e-03 -5.60041980993571e-04
 6.82000000000000e+10  1.98971516076601e-03 -5.88045606129033e-04  2.84925519795759e-01  8.60977481906804e-01  2.84925519795759e-01  8.60977481906804e-01  1.98971516076601e-03 -5.88045606129033e-04
 6.82500000000000e+10  1.96856679874737e-03 -6.15322799956257e-04  2.99940631796510e-01  8.55814933953918e-01  2.99940631796510e-01  8.55814933953918e-01  1.96856679874737e-03 -6.15322799956257e-04
 6.83000000000000e+10  1.94647862799016e-03 -6.41840266958000e-04  3.14862326113712e-01  8.50390575114318e-01  3.14862326113712e-01  8.50390575114318e-01  1.94647862799016e-03 -6.41840266958000e-04
 6.83500000000000e+10  1.92347791165581e-03 -6.67565649494082e-04  3.29686038524060e-01  8.44706093688151e-01  3.29686038524060e-01  8.44706093688151e-01  1.92347791165581e-03 -6.67565649494082e-04
 6.84000000000000e+10  1.89959302617932e-03 -6.92467567281770e-04  3.44407235278038e-01  8.38763257529230e-01  3.44407235278038e-01  8.38763257529230e-01  1.89959302617932e-03 -6.92467567281770e-04
 6.84500000000000e+10  1.87485342626568e-03 -7.16515655669047e-04  3.59021414486199e-01  8.32563913495737e-01  3.59021414486199e-01  8.32563913495737e-01  1.87485342626568e-03 -7.16515655669047e-04
 6.85000000000000e+10  1.84928960857261e-03 -7.39680602656769e-04  3.73524107495563e-01  8.26109986876792e-01  3.73524107495563e-01  8.26109986876792e-01  1.84928960857261e-03 -7.39680602656769e-04
 6.85500000000000e+10  1.82293307412205e-03 -7.61934184622250e-04  3.87910880255718e-01  8.19403480795042e-01  3.87910880255718e-01  8.19403480795042e-01  1.82293307412205e-03 -7.61934184622250e-04
 6.86000000000000e+10  1.79581628948901e-03 -7.83249300702634e-04  4.02177334674185e-01  8.12446475585472e-01  4.02177334674185e-01  8.12446475585472e-01  1.79581628948901e-03 -7.83249300702634e-04
 6.86500000000000e+10  1.76797264681355e-03 -8.03600005794572e-04  4.16319109960677e-01  8.05241128150610e-01  4.16319109960677e-01  8.05241128150610e-01  1.76797264681355e-03 -8.03600005794572e-04
 6.87000000000000e+10  1.73943642268683e-03 -8.22961542131356e-04  4.30331883959789e-01  7.97789671292340e-01  4.30331883959789e-01  7.97789671292340e-01  1.73943642268683e-03 -8.22961542131356e-04
 6.87500000000000e+10  1.71024273596038e-03 -8.41310369398014e-04  4.44211374471750e-01  7.90094413020528e-01  4.44211374471750e-01  7.90094413020528e-01  1.71024273596038e-03 -8.41310369398014e-04
 6.88000000000000e+10  1.68042750453144e-03 -8.58624193348352e-04  4.57953340560813e-01  7.82157735838668e-01  4.57953340560813e-01  7.82157735838668e-01  1.68042750453144e-03 -8.58624193348352e-04
 6.88500000000000e+10  1.65002740115800e-03 -8.74881992889526e-04  4.71553583850899e-01  7.73982096006766e-01  4.71553583850899e-01  7.73982096006766e-01  1.65002740115800e-03 -8.74881992889526e-04
 6.89000000000000e+10  1.61907980835590e-03 -8.90064045599851e-04  4.85007949808085e-01  7.65570022781704e-01  4.85007949808085e-01  7.65570022781704e-01  1.61907980835590e-03 -8.90064045599851e-04
 6.89500000000000e+10  1.58762277243545e-03 -9.04151951650211e-04  4.98312329009562e-01  7.56924117635293e-01  4.98312329009562e-01  7.56924117635293e-01  1.58762277243545e-03 -9.04151951650211e-04
 6.90000000000000e+10  1.55569495673400e-03 -9.17128656100069e-04  5.11462658398635e-01  7.48047053450289e-01  5.11462658398635e-01  7.48047053450289e-01  1.55569495673400e-03 -9.17128656100069e-04
 6.90500000000000e+10  1.52333559409971e-03 -9.28978469539450e-04  5.24454922525435e-01  7.38941573694594e-01  5.24454922525435e-01  7.38941573694594e-01  1.52333559409971e-03 -9.28978469539450e-04
 6.91000000000000e+10  1.49058443868827e-03 -9.39687087054298e-04  5.37285154772965e-01  7.29610491573876e-01  5.37285154772965e-01  7.29610491573876e-01  1.49058443868827e-03 -9.39687087054298e-04
 6.91500000000000e+10  1.45748171712805e-03 -9.49241605490107e-04  5.49949438568011e-01  7.20056689162948e-01  5.49949438568011e-01  7.20056689162948e-01  1.45748171712805e-03 -9.49241605490107e-04
 6.92000000000000e+10  1.42406807911770e-03 -9.57630538994492e-04  5.62443908576670e-01  7.10283116516082e-01  5.62443908576670e-01  7.10283116516082e-01  1.42406807911770e-03 -9.57630538994492e-04
 6.92500000000000e+10  1.39038454751357e-03 -9.64843832819302e-04  5.74764751884060e-01  7.00292790756585e-01  5.74764751884060e-01  7.00292790756585e-01  1.39038454751357e-03 -9.64843832819302e-04
 6.93000000000000e+10  1.35647246796897e-03 -9.70872875365396e-04  5.86908209157890e-01  6.90088795145890e-01  5.86908209157890e-01  6.90088795145890e-01  1.35647246796897e-03 -9.70872875365396e-04
 6.93500000000000e+10  1.32237345818923e-03 -9.75710508457055e-04  5.98870575795469e-01  6.79674278132483e-01  5.98870575795469e-01  6.79674278132483e-01  1.32237345818923e-03 -9.75710508457055e-04
 6.94000000000000e+10  1.28812935686132e-03 -9.79351035831520e-04  6.10648203053891e-01  6.69052452380918e-01  6.10648203053891e-01  6.69052452380918e-01  1.28812935686132e-03 -9.79351035831520e-04
 6.94500000000000e+10  1.25378217232416e-03 -9.81790229835937e-04  6.22237499162975e-01  6.58226593781255e-01  6.22237499162975e-01  6.58226593781255e-01  1.25378217232416e-03 -9.81790229835937e-04
 6.95000000000000e+10  1.21937403103918e-03 -9.83025336322091e-04  6.33634930420690e-01  6.47200040439175e-01  6.33634930420690e-01  6.47200040439175e-01  1.21937403103918e-03 -9.83025336322091e-04
 6.95500000000000e+10  1.18494712592849e-03 -9.83055077734887e-04  6.44837022270652e-01  6.35976191647160e-01  6.44837022270652e-01  6.35976191647160e-01  1.18494712592849e-03 -9.83055077734887e-04
 6.96000000000000e+10  1.15054366463883e-03 -9.81879654388424e-04  6.55840360361436e-01  6.24558506836969e-01  6.55840360361436e-01  6.24558506836969e-01  1.15054366463883e-03 -9.81879654388424e-04
 6.96500000000000e+10  1.11620581780008e-03 -9.79500743932603e-04  6.66641591587315e-01  6.12950504513822e-01  6.66641591587315e-01  6.12950504513822e-01  1.11620581780008e-03 -9.79500743932603e-04
 6.97000000000000e+10  1.08197566733736e-03 -9.75921499006832e-04  6.77237425110207e-01  6.01155761172484e-01  6.77237425110207e-01  6.01155761172484e-01  1.08197566733736e-03 -9.75921499006832e-04
 6.97500000000000e+10  1.04789515490308e-03 -9.71146543087609e-04  6.87624633362363e-01  5.89177910195778e-01  6.87624633362363e-01  5.89177910195778e-01  1.04789515490308e-03 -9.71146543087609e-04
 6.98000000000000e+10  1.01400603049030e-03 -9.65181964532697e-04  6.97800053029655e-01  5.77020640735670e-01  6.97800053029655e-01  5.77020640735670e-01  1.01400603049030e-03 -9.65181964532697e-04
 6.98500000000000e+10  9.80349801291429e-04 -9.58035308832067e-04  7.07760586015031e-01  5.64687696577417e-01  7.07760586015031e-01  5.64687696577417e-01  9.80349801291429e-04 -9.58035308832067e-04
 6.99000000000000e+10  9.46967680864162e-04 -9.49715569073059e-04  7.17503200381962e-01  5.52182874986996e-01  7.17503200381962e-01  5.52182874986996e-01  9.46967680864162e-04 -9.49715569073059e-04
 6.99500000000000e+10  9.13900538667632e-04 -9.40233174633546e-04  7.27024931277468e-01  5.39510025542319e-01  7.27024931277468e-01  5.39510025542319e-01  9.13900538667632e-04 -9.40233174633546e-04
 7.00000000000000e+10  8.81188850029421e-04 -9.29599978116413e-04  7.36322881834543e-01  5.26673048948451e-01  7.36322881834543e-01  5.26673048948451e-01  8.81188850029421e-04 -9.29599978116413e-04
 7.00500000000000e+10  8.48872646606809e-04 -9.17829240542124e-04  7.45394224053643e-01  5.13675895837303e-01  7.45394224053643e-01  5.13675895837303e-01  8.48872646606809e-04 -9.17829240542124e-04
 7.01000000000000e+10  8.16991467399664e-04 -9.04935614817110e-04  7.54236199663022e-01  5.00522565552071e-01  7.54236199663022e-01  5.00522565552071e-01  8.16991467399664e-04 -9.04935614817110e-04
 7.01500000000000e+10  7.85584310378598e-04 -8.90935127500280e-04  7.62846120957571e-01  4.87217104916903e-01  7.62846120957571e-01  4.87217104916903e-01  7.85584310378598e-04 -8.90935127500280e-04
 7.02000000000000e+10  7.54689584784364e-04 -8.75845158888213e-04  7.71221371616002e-01  4.73763606992073e-01  7.71221371616002e-01  4.73763606992073e-01  7.54689584784364e-04 -8.75845158888213e-04
 7.02500000000000e+10  7.24345064158941e-04 -8.59684421444785e-04  7.79359407496041e-01  4.60166209815127e-01  7.79359407496041e-01  4.60166209815127e-01  7.24345064158941e-04 -8.59684421444785e-04
 7.03000000000000e+10  6.94587840164857e-04 -8.42472936602967e-04  7.87257757407467e-01  4.46429095128284e-01  7.87257757407467e-01  4.46429095128284e-01  6.94587840164857e-04 -8.42472936602967e-04
 7.03500000000000e+10  6.65454277249225e-04 -8.24232009965087e-04  7.94914023862665e-01  4.32556487092656e-01  7.94914023862665e-01  4.32556487092656e-01  6.65454277249225e-04 -8.24232009965087e-04
 7.04000000000000e+10  6.36979968207924e-04 -8.04984204934846e-04  8.02325883804592e-01  4.18552650989426e-01  8.02325883804592e-01  4.18552650989426e-01  6.36979968207924e-04 -8.04984204934846e-04
 7.04500000000000e+10  6.09199690704994e-04 -7.84753314812490e-04  8.09491089311780e-01  4.04421891908689e-01  8.09491089311780e-01  4.04421891908689e-01  6.09199690704994e-04 -7.84753314812490e-04
 7.05000000000000e+10  5.82147364798905e-04 -7.63564333386762e-04  8.16407468280307e-01  3.90168553426091e-01  8.16407468280307e-01  3.90168553426091e-01  5.82147364798905e-04 -7.63564333386762e-04
 7.05500000000000e+10  5.55856011528634e-04 -7.41443424062188e-04  8.23072925082437e-01  3.75797016267817e-01  8.23072925082437e-01  3.75797016267817e-01  5.55856011528634e-04 -7.41443424062188e-04
 7.06000000000000e+10  5.30357712610380e-04 -7.18417887558158e-04  8.29485441201752e-01  3.61311696964321e-01  8.29485441201752e-01  3.61311696964321e-01  5.30357712610380e-04 -7.18417887558158e-04
 7.06500000000000e+10  5.05683571292625e-04 -6.94516128219328e-04  8.35643075844601e-01  3.46717046493161e-01  8.35643075844601e-01  3.46717046493161e-01  5.05683571292625e-04 -6.94516128219328e-04
 7.07000000000000e+10  4.81863674419353e-04 -6.69767618980959e-04  8.41543966527643e-01  3.32017548911447e-01  8.41543966527643e-01  3.32017548911447e-01  4.81863674419353e-04 -6.69767618980959e-04
 7.07500000000000e+10  4.58927055745453e-04 -6.44202865030387e-04  8.47186329641354e-01  3.17217719978197e-01  8.47186329641354e-01  3.17217719978197e-01  4.58927055745453e-04 -6.44202865030387e-04
 7.08000000000000e+10  4.36901660551082e-04 -6.17853366210226e-04  8.52568460989276e-01  3.02322105767145e-01  8.52568460989276e-01  3.02322105767145e-01  4.36901660551082e-04 -6.17853366210226e-04
 7.08500000000000e+10  4.15814311596809e-04 -5.90751578209608e-04  8.57688736302885e-01  2.87335281270344e-01  8.57688736302885e-01  2.87335281270344e-01  4.15814311596809e-04 -5.90751578209608e-04
 7.09000000000000e+10  3.95690676461912e-04 -5.62930872591330e-04  8.62545611731885e-01  2.72261848993077e-01  8.62545611731885e-01  2.72261848993077e-01  3.95690676461912e-04 -5.62930872591330e-04
 7.09500000000000e+10  3.76555236304157e-04 -5.34425495703959e-04  8.67137624309826e-01  2.57106437540379e-01  8.67137624309826e-01  2.57106437540379e-01  3.76555236304157e-04 -5.34425495703959e-04
 7.10000000000000e+10  3.58431256081211e-04 -5.05270526529563e-04  8.71463392394854e-01  2.41873700195752e-01  8.71463392394854e-01  2.41873700195752e-01  3.58431256081211e-04 -5.05270526529563e-04
 7.10500000000000e+10  3.41340756267493e-04 -4.75501833518954e-04  8.75521616085499e-01  2.26568313492377e-01  8.75521616085499e-01  2.26568313492377e-01  3.41340756267493e-04 -4.75501833518954e-04
 7.11000000000000e+10  3.25304486103722e-04 -4.45156030467544e-04  8.79311077611339e-01  2.11194975777427e-01  8.79311077611339e-01  2.11194975777427e-01  3.25304486103722e-04 -4.45156030467544e-04
 7.11500000000000e+10  3.10341898408232e-04 -4.14270431486028e-04  8.82830641698470e-01  1.95758405769684e-01  8.82830641698470e-01  1.95758405769684e-01  3.10341898408232e-04 -4.14270431486028e-04
 7.12000000000000e+10  2.96471125983876e-04 -3.82883005121544e-04  8.86079255909623e-01  1.80263341111153e-01  8.86079255909623e-01  1.80263341111153e-01  2.96471125983876e-04 -3.82883005121544e-04
 7.12500000000000e+10  2.83708959646813e-04 -3.51032327685091e-04  8.89055950958859e-01  1.64714536912936e-01  8.89055950958859e-01  1.64714536912936e-01  2.83708959646813e-04 -3.51032327685091e-04
 7.13000000000000e+10  2.72070827905186e-04 -3.18757535843512e-04  8.91759841000721e-01  1.49116764295940e-01  8.91759841000721e-01  1.49116764295940e-01  2.72070827905186e-04 -3.18757535843512e-04
 7.13500000000000e+10  2.61570778311576e-04 -2.86098278533351e-04  8.94190123893788e-01  1.33474808926754e-01  8.94190123893788e-01  1.33474808926754e-01  2.61570778311576e-04 -2.86098278533351e-04
 7.14000000000000e+10  2.52221460511475e-04 -2.53094668256386e-04  8.96346081438523e-01  1.17793469549236e-01  8.96346081438523e-01  1.17793469549236e-01  2.52221460511475e-04 -2.53094668256386e-04
 7.14500000000000e+10  2.44034111010277e-04 -2.19787231816027e-04  8.98227079589358e-01  1.02077556512204e-01  8.98227079589358e-01  1.02077556512204e-01  2.44034111010277e-04 -2.19787231816027e-04
 7.15000000000000e+10  2.37018539673364e-04 -1.86216860555950e-04  8.99832568640949e-01  8.63318902937443e-02  8.99832568640949e-01  8.63318902937443e-02  2.37018539673364e-04 -1.86216860555950e-04
 7.15500000000000e+10  2.31183117979507e-04 -1.52424760161031e-04  9.01162083388553e-01  7.05613000225057e-02  9.01162083388553e-01  7.05613000225057e-02  2.31183117979507e-04 -1.52424760161031e-04
 7.16000000000000e+10  2.26534769039284e-04 -1.18452400082965e-04  9.02215243262472e-01  5.47706219965041e-02  9.02215243262472e-01  5.47706219965041e-02  2.26534769039284e-04 -1.18452400082965e-04
 7.16500000000000e+10  2.23078959390491e-04 -8.43414626523539e-05  9.02991752436527e-01  3.89646981998427e-02  9.02991752436527e-01  3.89646981998427e-02  2.23078959390491e-04 -8.43414626523539e-05
 7.17000000000000e+10  2.20819692581270e-04 -5.01337919398574e-05  9.03491399910529e-01  2.31483748179124e-02  9.03491399910529e-01  2.31483748179124e-02  2.20819692581270e-04 -5.01337919398574e-05
 7.17500000000000e+10  2.19759504548003e-04 -1.58713424287872e-05  9.03714059566734e-01  7.32650075132178e-03  9.03714059566734e-01  7.32650075132178e-03  2.19759504548003e-04 -1.58713424287872e-05
 7.18000000000000e+10  2.19899460792715e-04  1.84038724373896e-05  9.03659690200257e-01 -8.49607387076717e-03  9.03659690200257e-01 -8.49607387076717e-03  2.19899460792715e-04  1.84038724373896e-05
 7.18500000000000e+10  2.21239155364403e-04  5.26498317699341e-05  9.03328335523435e-01 -2.43144991775747e-02  9.03328335523435e-01 -2.43144991775747e-02  2.21239155364403e-04  5.26498317699341e-05
 7.19000000000000e+10  2.23776711643096e-04  8.68245587487459e-05  9.02720124144157e-01 -4.01239270434122e-02  9.02720124144157e-01 -4.01239270434122e-02  2.23776711643096e-04  8.68245587487459e-05
 7.19500000000000e+10  2.27508784928284e-04  1.20886172072171e-04  9.01835269518148e-01 -5.59195125736912e-02  9.01835269518148e-01 -5.59195125736912e-02  2.27508784928284e-04  1.20886172072171e-04
 7.20000000000000e+10  2.32430566825190e-04  1.54792937279790e-04  9.00674069875246e-01 -7.16964155898445e-02  9.00674069875246e-01 -7.16964155898445e-02  2.32430566825190e-04  1.54792937279790e-04
 7.20500000000000e+10  2.38535791425072e-04  1.88503317885011e-04  8.99236908119683e-01 -8.74498021125905e-02  8.99236908119683e-01 -8.74498021125905e-02  2.38535791425072e-04  1.88503317885011e-04
 7.21000000000000e+10  2.45816743271404e-04  2.21976026255066e-04  8.97524251704401e-01 -1.03174845843200e-01  8.97524251704401e-01 -1.03174845843200e-01  2.45816743271404e-04  2.21976026255066e-04
 7.21500000000000e+10  2.54264267099991e-04  2.55170074176167e-04  8.95536652479462e-01 -1.18866729642227e-01  8.95536652479462e-01 -1.18866729642227e-01  2.54264267099991e-04  2.55170074176167e-04
 7.22000000000000e+10  2.63867779344809e-04  2.88044823041295e-04  8.93274746514577e-01 -1.34520647005318e-01  8.93274746514577e-01 -1.34520647005318e-01  2.63867779344809e-04  2.88044823041295e-04
 7.22500000000000e+10  2.74615281389572e-04  3.20560033600181e-04  8.90739253895839e-01 -1.50131803535565e-01  8.90739253895839e-01 -1.50131803535565e-01  2.74615281389572e-04  3.20560033600181e-04
 7.23000000000000e+10  2.86493374553682e-04  3.52675915209566e-04  8.87930978496690e-01 -1.65695418412058e-01  8.87930978496690e-01 -1.65695418412058e-01  2.86493374553682e-04  3.52675915209566e-04
 7.23500000000000e+10  2.99487276790501e-04  3.84353174523981e-04  8.84850807723239e-01 -1.81206725854057e-01  8.84850807723239e-01 -1.81206725854057e-01  2.99487276790501e-04  3.84353174523981e-04
 7.24000000000000e+10  3.13580841078371e-04  4.15553063567614e-04  8.81499712233966e-01 -1.96660976580462e-01  8.81499712233966e-01 -1.96660976580462e-01  3.13580841078371e-04  4.15553063567614e-04
 7.24500000000000e+10  3.28756575481028e-04  4.46237427127886e-04  8.77878745633941e-01 -2.12053439264021e-01  8.77878745633941e-01 -2.12053439264021e-01  3.28756575481028e-04  4.46237427127886e-04
 7.25000000000000e+10  3.44995664853693e-04  4.76368749413366e-04  8.73989044143619e-01 -2.27379401979952e-01  8.73989044143619e-01 -2.27379401979952e-01  3.44995664853693e-04  4.76368749413366e-04
 7.25500000000000e+10  3.62277994166173e-04  5.05910199918613e-04  8.69831826242355e-01 -2.42634173648389e-01  8.69831826242355e-01 -2.42634173648389e-01  3.62277994166173e-04  5.05910199918613e-04
 7.26000000000000e+10  3.80582173415051e-04  5.34825678439892e-04  8.65408392286708e-01 -2.57813085470344e-01  8.65408392286708e-01 -2.57813085470344e-01  3.80582173415051e-04  5.34825678439892e-04
 7.26500000000000e+10  3.99885564094050e-04  5.63079859187025e-04  8.60720124103699e-01 -2.72911492356637e-01  8.60720124103699e-01 -2.72911492356637e-01  3.99885564094050e-04  5.63079859187025e-04
 7.27000000000000e+10  4.20164307190067e-04  5.90638233937033e-04  8.55768484559097e-01 -2.87924774349496e-01  8.55768484559097e-01 -2.87924774349496e-01  4.20164307190067e-04  5.90638233937033e-04
 7.27500000000000e+10  4.41393352669480e-04  6.17467154177304e-04  8.50555017100931e-01 -3.02848338036181e-01  8.50555017100931e-01 -3.02848338036181e-01  4.41393352669480e-04  6.17467154177304e-04
 7.28000000000000e+10  4.63546490418579e-04  6.43533872186491e-04  8.45081345278324e-01 -3.17677617954408e-01  8.45081345278324e-01 -3.17677617954408e-01  4.63546490418579e-04  6.43533872186491e-04
 7.28500000000000e+10  4.86596382600477e-04  6.68806581003107e-04  8.39349172235815e-01 -3.32408077989025e-01  8.39349172235815e-01 -3.32408077989025e-01  4.86596382600477e-04  6.68806581003107e-04
 7.29000000000000e+10  5.10514597387942e-04  6.93254453233335e-04  8.33360280183328e-01 -3.47035212759550e-01  8.33360280183328e-01 -3.47035212759550e-01  5.10514597387942e-04  6.93254453233335e-04
 7.29500000000000e+10  5.35271644030929e-04  7.16847678649957e-04  8.27116529841952e-01 -3.61554548998132e-01  8.27116529841952e-01 -3.61554548998132e-01  5.35271644030929e-04  7.16847678649957e-04
 7.30000000000000e+10  5.60837009214666e-04  7.39557500537154e-04  8.20619859865713e-01 -3.75961646917512e-01  8.20619859865713e-01 -3.75961646917512e-01  5.60837009214666e-04  7.39557500537154e-04
 7.30500000000000e+10  5.87179194665113e-04  7.61356250737214e-04  8.13872286239508e-01 -3.90252101568579e-01  8.13872286239508e-01 -3.90252101568579e-01  5.87179194665113e-04  7.61356250737214e-04
 7.31000000000000e+10  6.14265755953602e-04  7.82217383355120e-04  8.06875901653387e-01 -4.04421544187112e-01  8.06875901653387e-01 -4.04421544187112e-01  6.14265755953602e-04  7.82217383355120e-04
 7.31500000000000e+10  6.42063342454375e-04  8.02115507081502e-04  7.99632874853383e-01 -4.18465643529274e-01  7.99632874853383e-01 -4.18465643529274e-01  6.42063342454375e-04  8.02115507081502e-04
 7.32000000000000e+10  6.70537738404749e-04  8.21026416093462e-04  7.92145449969107e-01 -4.32380107195446e-01  7.92145449969107e-01 -4.32380107195446e-01  6.70537738404749e-04  8.21026416093462e-04
 7.32500000000000e+10  6.99653905017878e-04  8.38927119496360e-04  7.84415945818297e-01 -4.46160682942005e-01  7.84415945818297e-01 -4.46160682942005e-01  6.99653905017878e-04  8.38927119496360e-04
 7.33000000000000e+10  7.29376023596448e-04  8.55795869270464e-04  7.76446755188514e-01 -4.59803159980718e-01  7.76446755188514e-01 -4.59803159980718e-01  7.29376023596448e-04  8.55795869270464e-04
 7.33500000000000e+10  7.59667539593540e-04  8.71612186688380e-04  7.68240344096290e-01 -4.73303370265175e-01  7.68240344096290e-01 -4.73303370265175e-01  7.59667539593540e-04  8.71612186688380e-04
 7.34000000000000e+10  7.90491207567155e-04  8.86356887171439e-04  7.59799251023870e-01 -4.86657189764061e-01  7.59799251023870e-01 -4.86657189764061e-01  7.90491207567155e-04  8.86356887171439e-04
 7.34500000000000e+10  8.21809136972867e-04  9.00012103555081e-04  7.51126086133827e-01 -4.99860539720771e-01  7.51126086133827e-01 -4.99860539720771e-01  8.21809136972867e-04  9.00012103555081e-04
 7.35000000000000e+10  8.53582838738382e-04  9.12561307733986e-04  7.42223530461793e-01 -5.12909387899007e-01  7.42223530461793e-01 -5.12909387899007e-01  8.53582838738382e-04  9.12561307733986e-04
 7.35500000000000e+10  8.85773272561970e-04  9.23989330662300e-04  7.33094335087542e-01 -5.25799749813991e-01  7.33094335087542e-01 -5.25799749813991e-01  8.85773272561970e-04  9.23989330662300e-04
 7.36000000000000e+10  9.18340894878809e-04  9.34282380683539e-04  7.23741320284713e-01 -5.38527689948869e-01  7.23741320284713e-01 -5.38527689948869e-01  9.18340894878809e-04  9.34282380683539e-04
 7.36500000000000e+10  9.51245707433472e-04  9.43428060168407e-04  7.14167374649390e-01 -5.51089322956024e-01  7.14167374649390e-01 -5.51089322956024e-01  9.51245707433472e-04  9.43428060168407e-04
 7.37000000000000e+10  9.84447306400566e-04  9.51415380440754e-04  7.04375454207844e-01 -5.63480814842839e-01  7.04375454207844e-01 -5.63480814842839e-01  9.84447306400566e-04  9.51415380440754e-04
 7.37500000000000e+10  1.01790493199351e-03  9.58234774972899e-04  6.94368581503711e-01 -5.75698384141607e-01  6.94368581503711e-01 -5.75698384141607e-01  1.01790493199351e-03  9.58234774972899e-04
 7.38000000000000e+10  1.05157751849965e-03  9.63878110836213e-04  6.84149844664868e-01 -5.87738303063208e-01  6.84149844664868e-01 -5.87738303063208e-01  1.05157751849965e-03  9.63878110836213e-04
 7.38500000000000e+10  1.08542374467993e-03  9.68338698390339e-04  6.73722396450325e-01 -5.99596898634201e-01  6.73722396450325e-01 -5.99596898634201e-01  1.08542374467993e-03  9.68338698390339e-04
 7.39000000000000e+10  1.11940208447306e-03  9.71611299203244e-04  6.63089453277391e-01 -6.11270553817006e-01  6.63089453277391e-01 -6.11270553817006e-01  1.11940208447306e-03  9.71611299203244e-04
 7.39500000000000e+10  1.15347085793977e-03  9.73692132189134e-04  6.52254294229455e-01 -6.22755708612802e-01  6.52254294229455e-01 -6.22755708612802e-01  1.15347085793977e-03  9.73692132189134e-04
 7.40000000000000e+10  1.18758828238671e-03  9.74578877959946e-04  6.41220260044661e-01 -6.34048861146833e-01  6.41220260044661e-01 -6.34048861146833e-01  1.18758828238671e-03  9.74578877959946e-04
 7.40500000000000e+10  1.22171252360535e-03  9.74270681383152e-04  6.29990752085802e-01 -6.45146568735774e-01  6.29990752085802e-01 -6.45146568735774e-01  1.22171252360535e-03  9.74270681383152e-04
 7.41000000000000e+10  1.25580174716474e-03  9.72768152345207e-04  6.18569231291739e-01 -6.56045448936845e-01  6.18569231291739e-01 -6.56045448936845e-01  1.25580174716474e-03  9.72768152345207e-04
 7.41500000000000e+10  1.28981416969370e-03  9.70073364717933e-04  6.06959217110691e-01 -6.66742180578346e-01  6.06959217110691e-01 -6.66742180578346e-01  1.28981416969370e-03  9.70073364717933e-04
 7.42000000000000e+10  1.32370811009181e-03  9.66189853531559e-04  5.95164286415703e-01 -6.77233504771298e-01  5.95164286415703e-01 -6.77233504771298e-01  1.32370811009181e-03  9.66189853531559e-04
 7.42500000000000e+10  1.35744204060303e-03  9.61122610356187e-04  5.83188072402626e-01 -6.87516225901904e-01  5.83188072402626e-01 -6.87516225901904e-01  1.35744204060303e-03  9.61122610356187e-04
 7.43000000000000e+10  1.39097463769281e-03  9.54878076899759e-04  5.71034263470993e-01 -6.97587212604474e-01  5.71034263470993e-01 -6.97587212604474e-01  1.39097463769281e-03  9.54878076899759e-04
 7.43500000000000e+10  1.42426483266506e-03  9.47464136828767e-04  5.58706602088054e-01 -7.07443398714605e-01  5.58706602088054e-01 -7.07443398714605e-01  1.42426483266506e-03  9.47464136828767e-04
 7.44000000000000e+10  1.45727186195536e-03  9.38890105823470e-04  5.46208883636410e-01 -7.17081784202234e-01  5.46208883636410e-01 -7.17081784202234e-01  1.45727186195536e-03  9.38890105823470e-04
 7.44500000000000e+10  1.48995531704164e-03  9.29166719879584e-04  5.33544955245519e-01 -7.26499436084360e-01  5.33544955245519e-01 -7.26499436084360e-01  1.48995531704164e-03  9.29166719879584e-04
 7.45000000000000e+10  1.52227519390967e-03  9.18306121871550e-04  5.20718714607536e-01 -7.35693489317077e-01  5.20718714607536e-01 -7.35693489317077e-01  1.52227519390967e-03  9.18306121871550e-04
 7.45500000000000e+10  1.55419194201253e-03  9.06321846392988e-04  5.07734108777710e-01 -7.44661147666753e-01  5.07734108777710e-01 -7.44661147666753e-01  1.55419194201253e-03  9.06321846392988e-04
 7.46000000000000e+10  1.58566651266511e-03  8.93228802895285e-04  4.94595132959852e-01 -7.53399684559975e-01  4.94595132959852e-01 -7.53399684559975e-01  1.58566651266511e-03  8.93228802895285e-04
 7.46500000000000e+10  1.61666040681388e-03  8.79043257143414e-04  4.81305829277142e-01 -7.61906443912106e-01  4.81305829277142e-01 -7.61906443912106e-01  1.61666040681388e-03  8.79043257143414e-04
 7.47000000000000e+10  1.64713572212312e-03  8.63782811012685e-04  4.67870285528741e-01 -7.70178840934103e-01  4.67870285528741e-01 -7.70178840934103e-01  1.64713572212312e-03  8.63782811012685e-04
 7.47500000000000e+10  1.67705519932153e-03  8.47466380652630e-04  4.54292633932488e-01 -7.78214362917462e-01  4.54292633932488e-01 -7.78214362917462e-01  1.67705519932153e-03  8.47466380652630e-04
 7.48000000000000e+10  1.70638226775071e-03  8.30114173043092e-04  4.40577049854169e-01 -7.86010569996951e-01  4.40577049854169e-01 -7.86010569996951e-01  1.70638226775071e-03  8.30114173043092e-04
 7.48500000000000e+10  1.73508109006036e-03  8.11747660972879e-04  4.26727750523673e-01 -7.93565095890976e-01  4.26727750523673e-01 -7.93565095890976e-01  1.73508109006036e-03  8.11747660972879e-04
 7.49000000000000e+10  1.76311660599729e-03  7.92389556472042e-04  4.12748993738499e-01 -8.00875648619293e-01  4.12748993738499e-01 -8.00875648619293e-01  1.76311660599729e-03  7.92389556472042e-04
 7.49500000000000e+10  1.79045457523175e-03  7.72063782729981e-04  3.98645076554956e-01 -8.07940011197903e-01  3.98645076554956e-01 -8.07940011197903e-01  1.79045457523175e-03  7.72063782729981e-04
 7.50000000000000e+10  1.81706161917125e-03  7.50795444534409e-04  3.84420333967429e-01 -8.14756042310916e-01  3.84420333967429e-01 -8.14756042310916e-01  1.81706161917125e-03  7.50795444534409e-04
 7.50500000000000e+10  1.84290526170988e-03  7.28610797267850e-04  3.70079137576266e-01 -8.21321676959114e-01  3.70079137576266e-01 -8.21321676959114e-01  1.84290526170988e-03  7.28610797267850e-04
 7.51000000000000e+10  1.86795396886305e-03  7.05537214499593e-04  3.55625894244518e-01 -8.27634927085109e-01  3.55625894244518e-01 -8.27634927085109e-01  1.86795396886305e-03  7.05537214499593e-04
 7.51500000000000e+10  1.89217718724012e-03  6.81603154213569e-04  3.41065044744044e-01 -8.33693882174848e-01  3.41065044744044e-01 -8.33693882174848e-01  1.89217718724012e-03  6.81603154213569e-04
 7.52000000000000e+10  1.91554538130700e-03  6.56838123713089e-04  3.26401062391352e-01 -8.39496709835317e-01  3.26401062391352e-01 -8.39496709835317e-01  1.91554538130700e-03  6.56838123713089e-04
 7.52500000000000e+10  1.93803006939477e-03  6.31272643246956e-04  3.11638451673668e-01 -8.45041656348234e-01  3.11638451673668e-01 -8.45041656348234e-01  1.93803006939477e-03  6.31272643246956e-04
 7.53000000000000e+10  1.95960385840856e-03  6.04938208400340e-04  2.96781746865545e-01 -8.50327047199599e-01  2.96781746865545e-01 -8.50327047199599e-01  1.95960385840856e-03  6.04938208400340e-04
 7.53500000000000e+10  1.98024047719541e-03  5.77867251297413e-04  2.81835510636537e-01 -8.55351287584927e-01  2.81835510636537e-01 -8.55351287584927e-01  1.98024047719541e-03  5.77867251297413e-04
 7.54000000000000e+10  1.99991480853129e-03  5.50093100664162e-04  2.66804332650281e-01 -8.60112862890022e-01  2.66804332650281e-01 -8.60112862890022e-01  1.99991480853129e-03  5.50093100664162e-04
 7.54500000000000e+10  2.01860291968653e-03  5.21649940799359e-04  2.51692828155499e-01 -8.64610339147117e-01  2.51692828155499e-01 -8.64610339147117e-01  2.01860291968653e-03  5.21649940799359e-04
 7.55000000000000e+10  2.03628209153355e-03  4.92572769504818e-04  2.36505636569282e-01 -8.68842363466294e-01  2.36505636569282e-01 -8.68842363466294e-01  2.03628209153355e-03  4.92572769504818e-04
 7.55500000000000e+10  2.05293084616176e-03  4.62897355027121e-04  2.21247420053153e-01 -8.72807664442003e-01  2.21247420053153e-01 -8.72807664442003e-01  2.05293084616176e-03  4.62897355027121e-04
 7.56000000000000e+10  2.06852897296551e-03  4.32660192062603e-04  2.05922862082228e-01 -8.76505052534611e-01  2.05922862082228e-01 -8.76505052534611e-01  2.06852897296551e-03  4.32660192062603e-04
 7.56500000000000e+10  2.08305755317318e-03  4.01898456881099e-04  1.90536666008122e-01 -8.79933420426807e-01  1.90536666008122e-01 -8.79933420426807e-01  2.08305755317318e-03  4.01898456881099e-04
 7.57000000000000e+10  2.09649898278821e-03  3.70649961622339e-04  1.75093553615802e-01 -8.83091743354813e-01  1.75093553615802e-01 -8.83091743354813e-01  2.09649898278821e-03  3.70649961622339e-04
 7.57500000000000e+10  2.10883699391486e-03  3.38953107822410e-04  1.59598263675030e-01 -8.85979079414268e-01  1.59598263675030e-01 -8.85979079414268e-01  2.10883699391486e-03  3.38953107822410e-04
 7.58000000000000e+10  2.12005667444069e-03  3.06846839226089e-04  1.44055550486653e-01 -8.88594569840716e-01  1.44055550486653e-01 -8.88594569840716e-01  2.12005667444069e-03  3.06846839226089e-04
 7.58500000000000e+10  2.13014448605456e-03  2.74370593944236e-04  1.28470182424400e-01 -8.90937439264582e-01  1.28470182424400e-01 -8.90937439264582e-01  2.13014448605456e-03  2.74370593944236e-04
 7.59000000000000e+10  2.13908828057641e-03  2.41564256014110e-04  1.12846940472407e-01 -8.93006995940611e-01  1.12846940472407e-01 -8.93006995940611e-01  2.13908828057641e-03  2.41564256014110e-04
 7.59500000000000e+10  2.14687731458063e-03  2.08468106422768e-04  9.71906167591112e-02 -8.94802631951653e-01  9.71906167591112e-02 -8.94802631951653e-01  2.14687731458063e-03  2.08468106422768e-04
 7.60000000000000e+10  2.15350226229381e-03  1.75122773652967e-04  8.15060130878223e-02 -8.96323823386765e-01  8.15060130878223e-02 -8.96323823386765e-01  2.15350226229381e-03  1.75122773652967e-04
 7.60500000000000e+10  2.15895522675338e-03  1.41569183813154e-04  6.57979394645201e-02 -8.97570130493569e-01  6.57979394645201e-02 -8.97570130493569e-01  2.15895522675338e-03  1.41569183813154e-04
 7.61000000000000e+10  2.16322974921187e-03  1.07848510411842e-04  5.00712126232305e-02 -8.98541197804822e-01  5.00712126232305e-02 -8.98541197804822e-01  2.16322974921187e-03  1.07848510411842e-04
 7.61500000000000e+10  2.16632081677646e-03  7.40021238386814e-05  3.43306545495521e-02 -8.99236754239159e-01  3.43306545495521e-02 -8.99236754239159e-01  2.16632081677646e-03  7.40021238386814e-05
 7.62000000000000e+10  2.16822486827561e-03  4.00715406138589e-05  1.85810910026642e-02 -8.99656613175991e-01  1.85810910026642e-02 -8.99656613175991e-01  2.16822486827561e-03  4.00715406138589e-05
 7.62500000000000e+10  2.16893979834413e-03  6.09837246822628e-06  2.82735003637460e-03 -8.99800672504524e-01  2.82735003637460e-03 -8.99800672504524e-01  2.16893979834413e-03  6.09837246822628e-06
 7.63000000000000e+10  2.16846495972357e-03 -2.78757246835736e-05 -1.29257394804560e-02 -8.99668914646897e-01 -1.29257394804560e-02 -8.99668914646897e-01  2.16846495972357e-03 -2.78757246835736e-05
 7.63500000000000e+10  2.16680116377494e-03 -6.18091018142348e-05 -2.86733493435510e-02 -8.99261406555432e-01 -2.86733493435510e-02 -8.99261406555432e-01  2.16680116377494e-03 -6.18091018142348e-05
 7.64000000000000e+10  2.16395067920266e-03 -9.56601678365842e-05 -4.44106534924941e-02 -8.98578299683995e-01 -4.44106534924941e-02 -8.98578299683995e-01  2.16395067920266e-03 -9.56601678365842e-05
 7.64500000000000e+10  2.15991722899343e-03 -1.29387440575655e-04 -6.01328294892648e-02 -8.97619829933485e-01 -6.01328294892648e-02 -8.97619829933485e-01  2.15991722899343e-03 -1.29387440575655e-04
 7.65000000000000e+10  2.15470598557242e-03 -1.62949597597376e-04 -7.58350599954725e-02 -8.96386317571466e-01 -7.58350599954725e-02 -8.96386317571466e-01  2.15470598557242e-03 -1.62949597597376e-04
 7.65500000000000e+10  2.14832356418422e-03 -1.96305526831736e-04 -9.15125342479279e-02 -8.94878167125975e-01 -9.15125342479279e-02 -8.94878167125975e-01  2.14832356418422e-03 -1.96305526831736e-04
 7.66000000000000e+10  2.14077801450543e-03 -2.29414376928239e-04 -1.07160449532011e-01 -8.93095867253527e-01 -1.07160449532011e-01 -8.93095867253527e-01  2.14077801450543e-03 -2.29414376928239e-04
 7.66500000000000e+10  2.13207881050239e-03 -2.62235607282326e-04 -1.22774012652499e-01 -8.91039990581380e-01 -1.22774012652499e-01 -8.91039990581380e-01  2.13207881050239e-03 -2.62235607282326e-04
 7.67000000000000e+10  2.12223683854341e-03 -2.94729037671070e-04 -1.38348441401293e-01 -8.88711193524094e-01 -1.38348441401293e-01 -8.88711193524094e-01  2.12223683854341e-03 -2.94729037671070e-04
 7.67500000000000e+10  2.11126438378238e-03 -3.26854897437754e-04 -1.53878966021683e-01 -8.86110216074444e-01 -1.53878966021683e-01 -8.86110216074444e-01  2.11126438378238e-03 -3.26854897437754e-04
 7.68000000000000e+10  2.09917511483135e-03 -3.58573874164882e-04 -1.69360830668599e-01 -8.83237881568768e-01 -1.69360830668599e-01 -8.83237881568768e-01  2.09917511483135e-03 -3.58573874164882e-04
 7.68500000000000e+10  2.08598406673915e-03 -3.89847161776313e-04 -1.84789294864562e-01 -8.80095096426802e-01 -1.84789294864562e-01 -8.80095096426802e-01  2.08598406673915e-03 -3.89847161776313e-04
 7.69000000000000e+10  2.07170762229845e-03 -4.20636508009262e-04 -2.00159634950713e-01 -8.76682849866102e-01 -2.00159634950713e-01 -8.76682849866102e-01  2.07170762229845e-03 -4.20636508009262e-04
 7.69500000000000e+10  2.05636349170553e-03 -4.50904261198834e-04 -2.15467145532626e-01 -8.73002213591126e-01 -2.15467145532626e-01 -8.73002213591126e-01  2.05636349170553e-03 -4.50904261198834e-04
 7.70000000000000e+10  2.03997069059468e-03 -4.80613416316635e-04 -2.30707140920303e-01 -8.69054341457099e-01 -2.30707140920303e-01 -8.69054341457099e-01  2.03997069059468e-03 -4.80613416316635e-04
 7.70500000000000e+10  2.02254951647974e-03 -5.09727660208924e-04 -2.45874956562125e-01 -8.64840469108727e-01 -2.45874956562125e-01 -8.64840469108727e-01  2.02254951647974e-03 -5.09727660208924e-04
 7.71000000000000e+10  2.00412152362523e-03 -5.38211415977185e-04 -2.60965950472106e-01 -8.60361913593915e-01 -2.60965950472106e-01 -8.60361913593915e-01  2.00412152362523e-03 -5.38211415977185e-04
 7.71500000000000e+10  1.98470949638509e-03 -5.66029886448240e-04 -2.75975504650156e-01 -8.55620072952571e-01 -2.75975504650156e-01 -8.55620072952571e-01  1.98470949638509e-03 -5.66029886448240e-04
 7.72000000000000e+10  1.96433742103639e-03 -5.93149096680024e-04 -2.90899026494848e-01 -8.50616425780653e-01 -2.90899026494848e-01 -8.50616425780653e-01  1.96433742103639e-03 -5.93149096680024e-04
 7.72500000000000e+10  1.94303045614635e-03 -6.19535935451623e-04 -3.05731950208299e-01 -8.45352530769581e-01 -3.05731950208299e-01 -8.45352530769581e-01  1.94303045614635e-03 -6.19535935451623e-04
 7.73000000000000e+10  1.92081490150781e-03 -6.45158195686407e-04 -3.20469738192704e-01 -8.39830026221148e-01 -3.20469738192704e-01 -8.39830026221148e-01  1.92081490150781e-03 -6.45158195686407e-04
 7.73500000000000e+10  1.89771816568131e-03 -6.69984613759301e-04 -3.35107882438119e-01 -8.34050629538104e-01 -3.35107882438119e-01 -8.34050629538104e-01  1.89771816568131e-03 -6.69984613759301e-04
 7.74000000000000e+10  1.87376873218502e-03 -6.93984907640120e-04 -3.49641905901060e-01 -8.28016136690548e-01 -3.49641905901060e-01 -8.28016136690548e-01  1.87376873218502e-03 -6.93984907640120e-04
 7.74500000000000e+10  1.84899612437284e-03 -7.17129813826400e-04 -3.64067363873486e-01 -8.21728421658305e-01 -3.64067363873486e-01 -8.21728421658305e-01  1.84899612437284e-03 -7.17129813826400e-04
 7.75000000000000e+10  1.82343086904446e-03 -7.39391123020565e-04 -3.78379845341778e-01 -8.15189435849449e-01 -3.78379845341778e-01 -8.15189435849449e-01  1.82343086904446e-03 -7.39391123020565e-04
 7.75500000000000e+10  1.79710445883328e-03 -7.60741714508285e-04 -3.92574974335266e-01 -8.08401207495175e-01 -3.92574974335266e-01 -8.08401207495175e-01  1.79710445883328e-03 -7.60741714508285e-04
 7.76000000000000e+10  1.77004931341639e-03 -7.81155589195740e-04 -4.06648411263909e-01 -8.01365841021176e-01 -4.06648411263909e-01 -8.01365841021176e-01  1.77004931341639e-03 -7.81155589195740e-04
 7.76500000000000e+10  1.74229873959692e-03 -8.00607901265964e-04 -4.20595854244716e-01 -7.94085516395741e-01 -4.20595854244716e-01 -7.94085516395741e-01  1.74229873959692e-03 -8.00607901265964e-04
 7.77000000000000e+10  1.71388689030460e-03 -8.19074988414952e-04 -4.34413040416509e-01 -7.86562488454768e-01 -4.34413040416509e-01 -7.86562488454768e-01  1.71388689030460e-03 -8.19074988414952e-04
 7.77500000000000e+10  1.68484872256939e-03 -8.36534400632068e-04 -4.48095747242614e-01 -7.78799086203898e-01 -4.48095747242614e-01 -7.78799086203898e-01  1.68484872256939e-03 -8.36534400632068e-04
 7.78000000000000e+10  1.65521995451561e-03 -8.52964927488333e-04 -4.61639793801087e-01 -7.70797712097991e-01 -4.61639793801087e-01 -7.70797712097991e-01  1.65521995451561e-03 -8.52964927488333e-04
 7.78500000000000e+10  1.62503702143169e-03 -8.68346623900276e-04 -4.75041042062094e-01 -7.62560841298153e-01 -4.75041042062094e-01 -7.62560841298153e-01  1.62503702143169e-03 -8.68346623900276e-04
 7.79000000000000e+10  1.59433703096970e-03 -8.82660834337814e-04 -4.88295398152035e-01 -7.54091020906561e-01 -4.88295398152035e-01 -7.54091020906561e-01  1.59433703096970e-03 -8.82660834337814e-04
 7.79500000000000e+10  1.56315771752907e-03 -8.95890215446808e-04 -5.01398813604010e-01 -7.45390869179324e-01 -5.01398813604010e-01 -7.45390869179324e-01  1.56315771752907e-03 -8.95890215446808e-04
 7.80000000000000e+10  1.53153739587988e-03 -9.08018757058925e-04 -5.14347286594349e-01 -7.36463074717558e-01 -5.14347286594349e-01 -7.36463074717558e-01  1.53153739587988e-03 -9.08018757058925e-04
 7.80500000000000e+10  1.49951491408479e-03 -9.19031801563100e-04 -5.27136863164634e-01 -7.27310395637059e-01 -5.27136863164634e-01 -7.27310395637059e-01  1.49951491408479e-03 -9.19031801563100e-04
 7.81000000000000e+10  1.46712960577532e-03 -9.28916061615526e-04 -5.39763638429050e-01 -7.17935658716674e-01 -5.39763638429050e-01 -7.17935658716674e-01  1.46712960577532e-03 -9.28916061615526e-04
 7.81500000000000e+10  1.43442124184203e-03 -9.37659636166435e-04 -5.52223757766547e-01 -7.08341758525751e-01 -5.52223757766547e-01 -7.08341758525751e-01  1.43442124184203e-03 -9.37659636166435e-04
 7.82000000000000e+10  1.40142998159832e-03 -9.45252024784751e-04 -5.64513417997525e-01 -6.98531656530862e-01 -5.64513417997525e-01 -6.98531656530862e-01  1.40142998159832e-03 -9.45252024784751e-04
 7.82500000000000e+10  1.36819632347732e-03 -9.51684140262910e-04 -5.76628868544662e-01 -6.88508380182114e-01 -5.76628868544662e-01 -6.88508380182114e-01  1.36819632347732e-03 -9.51684140262910e-04
 7.83000000000000e+10  1.33476105532156e-03 -9.56948319486929e-04 -5.88566412577503e-01 -6.78275021979331e-01 -5.88566412577503e-01 -6.78275021979331e-01  1.33476105532156e-03 -9.56948319486929e-04
 7.83500000000000e+10  1.30116520432860e-03 -9.61038332558781e-04 -6.00322408140500e-01 -6.67834738518358e-01 -6.00322408140500e-01 -6.67834738518358e-01  1.30116520432860e-03 -9.61038332558781e-04
 7.84000000000000e+10  1.26744998671180e-03 -9.63949390160480e-04 -6.11893269264164e-01 -6.57190749517815e-01 -6.11893269264164e-01 -6.57190749517815e-01  1.26744998671180e-03 -9.63949390160480e-04
 7.84500000000000e+10  1.23365675713910e-03 -9.65678149150334e-04 -6.23275467058940e-01 -6.46346336826575e-01 -6.23275467058940e-01 -6.46346336826575e-01  1.23365675713910e-03 -9.65678149150334e-04
 7.85000000000000e+10  1.19982695801230e-03 -9.66222716385691e-04 -6.34465530791507e-01 -6.35304843412311e-01 -6.34465530791507e-01 -6.35304843412311e-01  1.19982695801230e-03 -9.66222716385691e-04
 7.85500000000000e+10  1.16600206864737e-03 -9.65582650767575e-04 -6.45460048943160e-01 -6.24069672331385e-01 -6.45460048943160e-01 -6.24069672331385e-01  1.16600206864737e-03 -9.65582650767575e-04
 7.86000000000000e+10  1.13222355441972e-03 -9.63758963504543e-04 -6.56255670250005e-01 -6.12644285680365e-01 -6.56255670250005e-01 -6.12644285680365e-01  1.13222355441972e-03 -9.63758963504543e-04
 7.86500000000000e+10  1.09853281593658e-03 -9.60754116597070e-04 -6.66849104724528e-01 -6.01032203529611e-01 -6.66849104724528e-01 -6.01032203529611e-01  1.09853281593658e-03 -9.60754116597070e-04
 7.87000000000000e+10  1.06497113829724e-03 -9.56572019542667e-04 -6.77237124658352e-01 -5.89237002839129e-01 -6.77237124658352e-01 -5.89237002839129e-01  1.06497113829724e-03 -9.56572019542667e-04
 7.87500000000000e+10  1.03157964050598e-03 -9.51218024268169e-04 -6.87416565605807e-01 -5.77262316357089e-01 -6.87416565605807e-01 -5.77262316357089e-01  1.03157964050598e-03 -9.51218024268169e-04
 7.88000000000000e+10  9.98399225096746e-04 -9.44698918294426e-04 -6.97384327348042e-01 -5.65111831501326e-01 -6.97384327348042e-01 -5.65111831501326e-01  9.98399225096746e-04 -9.44698918294426e-04
 7.88500000000000e+10  9.65470528033876e-04 -9.37022916142104e-04 -7.07137374837349e-01 -5.52789289224209e-01 -7.07137374837349e-01 -5.52789289224209e-01  9.65470528033876e-04 -9.37022916142104e-04
 7.89000000000000e+10  9.32833868948141e-04 -9.28199648990613e-04 -7.16672739121451e-01 -5.40298482861156e-01 -7.16672739121451e-01 -5.40298482861156e-01  9.32833868948141e-04 -9.28199648990613e-04
 7.89500000000000e+10  9.00529201770745e-04 -9.18240152601882e-04 -7.25987518247447e-01 -5.27643256963224e-01 -7.25987518247447e-01 -5.27643256963224e-01  9.00529201770745e-04 -9.18240152601882e-04
 7.90000000000000e+10  8.68596065824730e-04 -9.07156853524478e-04 -7.35078878145160e-01 -5.14827506114049e-01 -7.35078878145160e-01 -5.14827506114049e-01  8.68596065824730e-04 -9.07156853524478e-04
 7.90500000000000e+10  8.37073537433424e-04 -8.94963553596033e-04 -7.43944053489574e-01 -5.01855173731607e-01 -7.43944053489574e-01 -5.01855173731607e-01  8.37073537433424e-04 -8.94963553596033e-04
 7.91000000000000e+10  8.06000182106243e-04 -8.81675412761849e-04 -7.52580348542160e-01 -4.88730250855048e-01 -7.52580348542160e-01 -4.88730250855048e-01  8.06000182106243e-04 -8.81675412761849e-04
 7.91500000000000e+10  7.75414007359556e-04 -8.67308930232953e-04 -7.60985137970764e-01 -4.75456774917093e-01 -7.60985137970764e-01 -4.75456774917093e-01  7.75414007359556e-04 -8.67308930232953e-04
 7.92000000000000e+10  7.45352416230202e-04 -8.51881924004799e-04 -7.69155867647900e-01 -4.62038828502215e-01 -7.69155867647900e-01 -4.62038828502215e-01  7.45352416230202e-04 -8.51881924004799e-04
 7.92500000000000e+10  7.15852161539310e-04 -8.35413508764367e-04 -7.77090055427068e-01 -4.48480538091220e-01 -7.77090055427068e-01 -4.48480538091220e-01  7.15852161539310e-04 -8.35413508764367e-04
 7.93000000000000e+10  6.86949300961171e-04 -8.17924072210804e-04 -7.84785291897015e-01 -4.34786072792336e-01 -7.84785291897015e-01 -4.34786072792336e-01  6.86949300961171e-04 -8.17924072210804e-04
 7.93500000000000e+10  6.58679152953788e-04 -7.99435249820886e-04 -7.92239241113592e-01 -4.20959643059430e-01 -7.92239241113592e-01 -4.20959643059430e-01  6.58679152953788e-04 -7.99435249820886e-04
 7.94000000000000e+10  6.31076253602718e-04 -7.79969898089122e-04 -7.99449641309036e-01 -4.07005499397622e-01 -7.99449641309036e-01 -4.07005499397622e-01  6.31076253602718e-04 -7.79969898089122e-04
 7.94500000000000e+10  6.04174314433222e-04 -7.59552066276126e-04 -8.06414305578452e-01 -3.92927931056739e-01 -8.06414305578452e-01 -3.92927931056739e-01  6.04174314433222e-04 -7.59552066276126e-04
 7.95000000000000e+10  5.78006181240573e-04 -7.38206966700438e-04 -8.13131122543280e-01 -3.78731264712994e-01 -8.13131122543280e-01 -3.78731264712994e-01  5.78006181240573e-04 -7.38206966700438e-04
 7.95500000000000e+10  5.52603793989856e-04 -7.15960943610039e-04 -8.19598056991562e-01 -3.64419863139292e-01 -8.19598056991562e-01 -3.64419863139292e-01  5.52603793989856e-04 -7.15960943610039e-04
 7.96000000000000e+10  5.27998147833076e-04 -6.92841440672215e-04 -8.25813150494774e-01 -3.49998123864621e-01 -8.25813150494774e-01 -3.49998123864621e-01  5.27998147833076e-04 -6.92841440672215e-04
 7.96500000000000e+10  5.04219255293106e-04 -6.68876967121526e-04 -8.31774522001095e-01 -3.35470477822843e-01 -8.31774522001095e-01 -3.35470477822843e-01  5.04219255293106e-04 -6.68876967121526e-04
 7.97000000000000e+10  4.81296109658188e-04 -6.44097062608545e-04 -8.37480368404877e-01 -3.20841387991406e-01 -8.37480368404877e-01 -3.20841387991406e-01  4.81296109658188e-04 -6.44097062608545e-04
 7.97500000000000e+10  4.59256649633247e-04 -6.18532260791365e-04 -8.42928965092180e-01 -3.06115348020306e-01 -8.42928965092180e-01 -3.06115348020306e-01  4.59256649633247e-04 -6.18532260791365e-04
 7.98000000000000e+10  4.38127725291280e-04 -5.92214051716015e-04 -8.48118666462169e-01 -2.91296880851827e-01 -8.48118666462169e-01 -2.91296880851827e-01  4.38127725291280e-04 -5.92214051716015e-04
 7.98500000000000e+10  4.17935065364455e-04 -5.65174843031282e-04 -8.53047906424269e-01 -2.76390537331326e-01 -8.53047906424269e-01 -2.76390537331326e-01  4.17935065364455e-04 -5.65174843031282e-04
 7.99000000000000e+10  3.98703245917321e-04 -5.37447920086268e-04 -8.57715198870873e-01 -2.61400894809663e-01 -8.57715198870873e-01 -2.61400894809663e-01  3.98703245917321e-04 -5.37447920086268e-04
 7.99500000000000e+10  3.80455660438181e-04 -5.09067404959084e-04 -8.62119138125492e-01 -2.46332555737570e-01 -8.62119138125492e-01 -2.46332555737570e-01  3.80455660438181e-04 -5.09067404959084e-04
 8.00000000000000e+10  3.63214491386735e-04 -4.80068214468065e-04 -8.66258399366185e-01 -2.31190146252503e-01 -8.66258399366185e-01 -2.31190146252503e-01  3.63214491386735e-04 -4.80068214468065e-04
 8.00500000000000e+10  3.47000683229997e-04 -4.50486017216439e-04 -8.70131739024187e-01 -2.15978314758285e-01 -8.70131739024187e-01 -2.15978314758285e-01  3.47000683229997e-04 -4.50486017216439e-04
 8.01000000000000e+10  3.31833917003369e-04 -4.20357189723536e-04 -8.73737995157554e-01 -2.00701730498105e-01 -8.73737995157554e-01 -2.00701730498105e-01  3.31833917003369e-04 -4.20357189723536e-04
 8.01500000000000e+10  3.17732586422770e-04 -3.89718771696578e-04 -8.77076087799763e-01 -1.85365082121204e-01 -8.77076087799763e-01 -1.85365082121204e-01  3.17732586422770e-04 -3.89718771696578e-04
 8.02000000000000e+10  3.04713775582133e-04 -3.58608420497699e-04 -8.80145019283126e-01 -1.69973076243803e-01 -8.80145019283126e-01 -1.69973076243803e-01  3.04713775582133e-04 -3.58608420497699e-04
 8.02500000000000e+10  2.92793238257833e-04 -3.27064364862874e-04 -8.82943874536952e-01 -1.54530436004566e-01 -8.82943874536952e-01 -1.54530436004566e-01  2.92793238257833e-04 -3.27064364862874e-04
 8.03000000000000e+10  2.81985378850250e-04 -2.95125357928665e-04 -8.85471821360337e-01 -1.39041899615198e-01 -8.85471821360337e-01 -1.39041899615198e-01  2.81985378850250e-04 -2.95125357928665e-04
 8.03500000000000e+10  2.72303234981514e-04 -2.62830629625473e-04 -8.87728110669527e-01 -1.23512218906492e-01 -8.87728110669527e-01 -1.23512218906492e-01  2.72303234981514e-04 -2.62830629625473e-04
 8.04000000000000e+10  2.63758461773118e-04 -2.30219838494931e-04 -8.89712076719753e-01 -1.07946157870407e-01 -8.89712076719753e-01 -1.07946157870407e-01  2.63758461773118e-04 -2.30219838494931e-04
 8.04500000000000e+10  2.56361317820677e-04 -1.97333022991357e-04 -8.91423137301505e-01 -9.23484911984542e-02 -8.91423137301505e-01 -9.23484911984542e-02  2.56361317820677e-04 -1.97333022991357e-04
 8.05000000000000e+10  2.50120652883350e-04 -1.64210552326491e-04 -8.92860793911151e-01 -7.67240028170091e-02 -8.92860793911151e-01 -7.67240028170091e-02  2.50120652883350e-04 -1.64210552326491e-04
 8.05500000000000e+10  2.45043897303749e-04 -1.30893076918071e-04 -8.94024631895884e-01 -6.10774844198960e-02 -8.94024631895884e-01 -6.10774844198960e-02  2.45043897303749e-04 -1.30893076918071e-04
 8.06000000000000e+10  2.41137053168259e-04 -9.74214785033083e-05 -8.94914320572927e-01 -4.54137339987293e-02 -8.94914320572927e-01 -4.54137339987293e-02  2.41137053168259e-04 -9.74214785033083e-05
 8.06500000000000e+10  2.38404687221215e-04 -6.38368199780806e-05 -8.95529613322978e-01 -2.97375543714615e-02 -8.95529613322978e-01 -2.97375543714615e-02  2.38404687221215e-04 -6.38368199780806e-05
 8.07000000000000e+10  2.36849925539290e-04 -3.01802950236119e-05 -8.95870347657866e-01 -1.40537517095868e-02 -8.95870347657866e-01 -1.40537517095868e-02  2.36849925539290e-04 -3.01802950236119e-05
 8.07500000000000e+10  2.36474449973908e-04  3.50682241759508e-06 -8.95936445262399e-01  1.63286593554547e-03 -8.95936445262399e-01  1.63286593554547e-03  2.36474449973908e-04  3.50682241759508e-06
 8.08000000000000e+10  2.37278496363652e-04  3.71832287545992e-05 -8.95727912010386e-01  1.73174901068614e-02 -8.95727912010386e-01  1.73174901068614e-02  2.37278496363652e-04  3.71832287545992e-05
 8.08500000000000e+10  2.39260854520516e-04  7.08076413875303e-05 -8.95244837954844e-01  3.29953134156405e-02 -8.95244837954844e-01  3.29953134156405e-02  2.39260854520516e-04  7.08076413875303e-05
 8.09000000000000e+10  2.42418869988639e-04  1.04338849311931e-04 -8.94487397292382e-01  4.86615310152209e-02 -8.94487397292382e-01  4.86615310152209e-02  2.42418869988639e-04  1.04338849311931e-04
 8.09500000000000e+10  2.46748447573012e-04  1.37735763625465e-04 -8.93455848301788e-01  6.43113420736608e-02 -8.93455848301788e-01  6.43113420736608e-02  2.46748447573012e-04  1.37735763625465e-04
 8.10000000000000e+10  2.52244056634228e-04  1.70957467875401e-04 -8.92150533256830e-01  7.99399512451094e-02 -8.92150533256830e-01  7.99399512451094e-02  2.52244056634228e-04  1.70957467875401e-04
 8.10500000000000e+10  2.58898738141076e-04  2.03963268185253e-04 -8.90571878313307e-01  9.55425701393294e-02 -8.90571878313307e-01  9.55425701393294e-02  2.58898738141076e-04  2.03963268185253e-04
 8.11000000000000e+10  2.66704113474338e-04  2.36712743098788e-04 -8.88720393370377e-01  1.11114418788967e-01 -8.88720393370377e-01  1.11114418788967e-01  2.66704113474338e-04  2.36712743098788e-04
 8.11500000000000e+10  2.75650394967281e-04  2.69165793080761e-04 -8.86596671906230e-01  1.26650727114035e-01 -8.86596671906230e-01  1.26650727114035e-01  2.75650394967281e-04  2.69165793080761e-04
 8.12000000000000e+10  2.85726398173069e-04  3.01282689613528e-04 -8.84201390788129e-01  1.42146736383301e-01 -8.84201390788129e-01  1.42146736383301e-01  2.85726398173069e-04  3.01282689613528e-04
 8.12500000000000e+10  2.96919555841489e-04  3.33024123829386e-04 -8.81535310056901e-01  1.57597700671985e-01 -8.81535310056901e-01  1.57597700671985e-01  2.96919555841489e-04  3.33024123829386e-04
 8.13000000000000e+10  3.09215933588091e-04  3.64351254619362e-04 -8.78599272685942e-01  1.72998888315428e-01 -8.78599272685942e-01  1.72998888315428e-01  3.09215933588091e-04  3.64351254619362e-04
 8.13500000000000e+10  3.22600247236790e-04  3.95225756159179e-04 -8.75394204314815e-01  1.88345583358209e-01 -8.75394204314815e-01  1.88345583358209e-01  3.22600247236790e-04  3.95225756159179e-04
 8.14000000000000e+10  3.37055881813261e-04  4.25609864794806e-04 -8.71921112957508e-01  2.03633086998349e-01 -8.71921112957508e-01  2.03633086998349e-01  3.37055881813261e-04  4.25609864794806e-04
 8.14500000000000e+10  3.52564912166974e-04  4.55466425229509e-04 -8.68181088685474e-01  2.18856719026054e-01 -8.68181088685474e-01  2.18856719026054e-01  3.52564912166974e-04  4.55466425229509e-04
 8.15000000000000e+10  3.69108125194213e-04  4.84758935956654e-04 -8.64175303285530e-01  2.34011819256657e-01 -8.64175303285530e-01  2.34011819256657e-01  3.69108125194213e-04  4.84758935956654e-04
 8.15500000000000e+10  3.86665043637168e-04  5.13451593882120e-04 -8.59905009892735e-01  2.49093748957228e-01 -8.59905009892735e-01  2.49093748957228e-01  3.86665043637168e-04  5.13451593882120e-04
 8.16000000000000e+10  4.05213951427114e-04  5.41509338082195e-04 -8.55371542598351e-01  2.64097892266527e-01 -8.55371542598351e-01  2.64097892266527e-01  4.05213951427114e-04  5.41509338082195e-04
 8.16500000000000e+10  4.24731920542053e-04  5.68897892643196e-04 -8.50576316033017e-01  2.79019657607749e-01 -8.50576316033017e-01  2.79019657607749e-01  4.24731920542053e-04  5.68897892643196e-04
 8.17000000000000e+10  4.45194839344509e-04  5.95583808530520e-04 -8.45520824925282e-01  2.93854479093679e-01 -8.45520824925282e-01  2.93854479093679e-01  4.45194839344509e-04  5.95583808530520e-04
 8.17500000000000e+10  4.66577442365303e-04  6.21534504436149e-04 -8.40206643635603e-01  3.08597817923840e-01 -8.40206643635603e-01  3.08597817923840e-01  4.66577442365303e-04  6.21534504436149e-04
 8.18000000000000e+10  4.88853341495889e-04  6.46718306554662e-04 -8.34635425665977e-01  3.23245163773204e-01 -8.34635425665977e-01  3.23245163773204e-01  4.88853341495889e-04  6.46718306554662e-04
 8.18500000000000e+10  5.11995058550857e-04  6.71104487239105e-04 -8.28808903145355e-01  3.37792036172008e-01 -8.28808903145355e-01  3.37792036172008e-01  5.11995058550857e-04  6.71104487239105e-04
 8.19000000000000e+10  5.35974059160954e-04  6.94663302489207e-04 -8.22728886291005e-01  3.52233985876274e-01 -8.22728886291005e-01  3.52233985876274e-01  5.35974059160954e-04  6.94663302489207e-04
 8.19500000000000e+10  5.60760787953914e-04  7.17366028227555e-04 -8.16397262845977e-01  3.66566596228611e-01 -8.16397262845977e-01  3.66566596228611e-01  5.60760787953914e-04  7.17366028227555e-04
 8.20000000000000e+10  5.86324704980663e-04  7.39184995317144e-04 -8.09815997492856e-01  3.80785484508903e-01 -8.09815997492856e-01  3.80785484508903e-01  5.86324704980663e-04  7.39184995317144e-04
 8.20500000000000e+10  6.12634323340893e-04  7.60093623280580e-04 -8.02987131243984e-01  3.94886303274440e-01 -8.02987131243984e-01  3.94886303274440e-01  6.12634323340893e-04  7.60093623280580e-04
 8.21000000000000e+10  6.39657247963347e-04  7.80066452676991e-04 -7.95912780808348e-01  4.08864741689076e-01 -7.95912780808348e-01  4.08864741689076e-01  6.39657247963347e-04  7.80066452676991e-04
 8.21500000000000e+10  6.67360215490501e-04  7.99079176098946e-04 -7.88595137935329e-01  4.22716526841023e-01 -7.88595137935329e-01  4.22716526841023e-01  6.67360215490501e-04  7.99079176098946e-04
 8.22000000000000e+10  6.95709135221877e-04  8.17108667751501e-04 -7.81036468735474e-01  4.36437425048948e-01 -7.81036468735474e-01  4.36437425048948e-01  6.95709135221877e-04  8.17108667751501e-04
 8.22500000000000e+10  7.24669131062032e-04  8.34133011576525e-04 -7.73239112978601e-01  4.50023243155788e-01 -7.73239112978601e-01  4.50023243155788e-01  7.24669131062032e-04  8.34133011576525e-04
 8.23000000000000e+10  7.54204584424345e-04  8.50131527889203e-04 -7.65205483369345e-01  4.63469829810093e-01 -7.65205483369345e-01  4.63469829810093e-01  7.54204584424345e-04  8.50131527889203e-04
 8.23500000000000e+10  7.84279178036808e-04  8.65084798493303e-04 -7.56938064800439e-01  4.76773076734395e-01 -7.56938064800439e-01  4.76773076734395e-01  7.84279178036808e-04  8.65084798493303e-04
 8.24000000000000e+10  8.14855940595109e-04  8.78974690245394e-04 -7.48439413583943e-01  4.89928919980217e-01 -7.48439413583943e-01  4.89928919980217e-01  8.14855940595109e-04  8.78974690245394e-04
 8.24500000000000e+10  8.45897292210135e-04  8.91784377039735e-04 -7.39712156660652e-01  5.02933341169389e-01 -7.39712156660652e-01  5.02933341169389e-01  8.45897292210135e-04  8.91784377039735e-04
 8.25000000000000e+10  8.77365090591738e-04  9.03498360185935e-04 -7.30758990787950e-01  5.15782368721219e-01 -7.30758990787950e-01  5.15782368721219e-01  8.77365090591738e-04  9.03498360185935e-04
 8.25500000000000e+10  9.09220677913788e-04  9.14102487155822e-04 -7.21582681706327e-01  5.28472079065241e-01 -7.21582681706327e-01  5.28472079065241e-01  9.09220677913788e-04  9.14102487155822e-04
 8.26000000000000e+10  9.41424928301937e-04  9.23583968676557e-04 -7.12186063284854e-01  5.40998597839074e-01 -7.12186063284854e-01  5.40998597839074e-01  9.41424928301937e-04  9.23583968676557e-04
 8.26500000000000e+10  9.73938295886260e-04  9.31931394149461e-04 -7.02572036645856e-01  5.53358101071089e-01 -7.02572036645856e-01  5.53358101071089e-01  9.73938295886260e-04  9.31931394149461e-04
 8.27000000000000e+10  1.00672086335944e-03  9.39134745375419e-04 -6.92743569269072e-01  5.65546816347488e-01 -6.92743569269072e-01  5.65546816347488e-01  1.00672086335944e-03  9.39134745375419e-04
 8.27500000000000e+10  1.03973239098082e-03  9.45185408571238e-04 -6.82703694075557e-01  5.77561023963477e-01 -6.82703694075557e-01  5.77561023963477e-01  1.03973239098082e-03  9.45185408571238e-04
 8.28000000000000e+10  1.07293236596714e-03  9.50076184661594e-04 -6.72455508491636e-01  5.89397058058134e-01 -6.72455508491636e-01  5.89397058058134e-01  1.07293236596714e-03  9.50076184661594e-04
 8.28500000000000e+10  1.10628005220724e-03  9.53801297835245e-04 -6.62002173493174e-01  6.01051307732670e-01 -6.62002173493174e-01  6.01051307732670e-01  1.10628005220724e-03  9.53801297835245e-04
 8.29000000000000e+10  1.13973454024207e-03  9.56356402354704e-04 -6.51346912630488e-01  6.12520218151713e-01 -6.51346912630488e-01  6.12520218151713e-01  1.13973454024207e-03  9.56356402354704e-04
 8.29500000000000e+10  1.17325479744749e-03  9.57738587611400e-04 -6.40493011034160e-01  6.23800291627294e-01 -6.40493011034160e-01  6.23800291627294e-01  1.17325479744749e-03  9.57738587611400e-04
 8.30000000000000e+10  1.20679971835815e-03  9.57946381421205e-04 -6.29443814402109e-01  6.34888088685203e-01 -6.29443814402109e-01  6.34888088685203e-01  1.20679971835815e-03  9.57946381421205e-04
 8.30500000000000e+10  1.24032817507091e-03  9.56979751554967e-04 -6.18202727968186e-01  6.45780229113388e-01 -6.18202727968186e-01  6.45780229113388e-01  1.24032817507091e-03  9.56979751554967e-04
 8.31000000000000e+10  1.27379906766728e-03  9.54840105504857e-04 -6.06773215452651e-01  6.56473392992077e-01 -6.06773215452651e-01  6.56473392992077e-01  1.27379906766728e-03  9.54840105504857e-04
 8.31500000000000e+10  1.30717137458982e-03  9.51530288484968e-04 -5.95158797994828e-01  6.66964321705313e-01 -5.95158797994828e-01  6.66964321705313e-01  1.30717137458982e-03  9.51530288484968e-04
 8.32000000000000e+10  1.34040420291517e-03  9.47054579670194e-04 -5.83363053068280e-01  6.77249818933598e-01 -5.83363053068280e-01  6.77249818933598e-01  1.34040420291517e-03  9.47054579670194e-04
 8.32500000000000e+10  1.37345683845837e-03  9.41418686678377e-04 -5.71389613378841e-01  6.87326751627328e-01 -5.71389613378841e-01  6.87326751627328e-01  1.37345683845837e-03  9.41418686678377e-04
 8.33000000000000e+10  1.40628879564872e-03  9.34629738301600e-04 -5.59242165745838e-01  6.97192050960747e-01 -5.59242165745838e-01  6.97192050960747e-01  1.40628879564872e-03  9.34629738301600e-04
 8.33500000000000e+10  1.43885986711615e-03  9.26696275497557e-04 -5.46924449966835e-01  7.06842713266123e-01 -5.46924449966835e-01  7.06842713266123e-01  1.43885986711615e-03  9.26696275497557e-04
 8.34000000000000e+10  1.47113017292705e-03  9.17628240651356e-04 -5.34440257666314e-01  7.16275800947819e-01 -5.34440257666314e-01  7.16275800947819e-01  1.47113017292705e-03  9.17628240651356e-04
 8.34500000000000e+10  1.50306020940936e-03  9.07436965121342e-04 -5.21793431128524e-01  7.25488443376087e-01 -5.21793431128524e-01  7.25488443376087e-01  1.50306020940936e-03  9.07436965121342e-04
 8.35000000000000e+10  1.53461089750639e-03  8.96135155084542e-04 -5.08987862115005e-01  7.34477837760176e-01 -5.08987862115005e-01  7.34477837760176e-01  1.53461089750639e-03  8.96135155084542e-04
 8.35500000000000e+10  1.56574363060257e-03  8.83736875699839e-04 -4.96027490667007e-01  7.43241250000631e-01 -4.96027490667007e-01  7.43241250000631e-01  1.56574363060257e-03  8.83736875699839e-04
 8.36000000000000e+10  1.59642032175884e-03  8.70257533608107e-04 -4.82916303893326e-01  7.51776015520380e-01 -4.82916303893326e-01  7.51776015520380e-01  1.59642032175884e-03  8.70257533608107e-04
 8.36500000000000e+10  1.62660345030391e-03  8.55713857791432e-04 -4.69658334743770e-01  7.60079540074497e-01 -4.69658334743770e-01  7.60079540074497e-01  1.62660345030391e-03  8.55713857791432e-04
 8.37000000000000e+10  1.65625610772109e-03  8.40123878814658e-04 -4.56257660768765e-01  7.68149300538285e-01 -4.56257660768765e-01  7.68149300538285e-01  1.65625610772109e-03  8.40123878814658e-04
 8.37500000000000e+10  1.68534204277685e-03  8.23506906475847e-04 -4.42718402865385e-01  7.75982845673523e-01 -4.42718402865385e-01  7.75982845673523e-01  1.68534204277685e-03  8.23506906475847e-04
 8.38000000000000e+10  1.71382570583512e-03  8.05883505892651e-04 -4.29044724010272e-01  7.83577796872576e-01 -4.29044724010272e-01  7.83577796872576e-01  1.71382570583512e-03  8.05883505892651e-04
 8.38500000000000e+10  1.74167229230174e-03  7.87275472054324e-04 -4.15240827979800e-01  7.90931848880179e-01 -4.15240827979800e-01  7.90931848880179e-01  1.74167229230174e-03  7.87275472054324e-04
 8.39000000000000e+10  1.76884778514975e-03  7.67705802871554e-04 -4.01310958057800e-01  7.98042770492715e-01 -4.01310958057800e-01  7.98042770492715e-01  1.76884778514975e-03  7.67705802871554e-04
 8.39500000000000e+10  1.79531899646881e-03  7.47198670756003e-04 -3.87259395731441e-01  8.04908405234667e-01 -3.87259395731441e-01  8.04908405234667e-01  1.79531899646881e-03  7.47198670756003e-04
 8.40000000000000e+10  1.82105360799204e-03  7.25779392766293e-04 -3.73090459375437e-01  8.11526672012160e-01 -3.73090459375437e-01  8.11526672012160e-01  1.82105360799204e-03  7.25779392766293e-04
 8.40500000000000e+10  1.84602021054825e-03  7.03474399356366e-04 -3.58808502925154e-01  8.17895565743319e-01 -3.58808502925154e-01  8.17895565743319e-01  1.84602021054825e-03  7.03474399356366e-04
 8.41000000000000e+10  1.87018834239250e-03  6.80311201764633e-04 -3.44417914538920e-01  8.24013157965285e-01 -3.44417914538920e-01  8.24013157965285e-01  1.87018834239250e-03  6.80311201764633e-04
 8.41500000000000e+10  1.89352852636838e-03  6.56318358085003e-04 -3.29923115250033e-01  8.29877597417689e-01 -3.29923115250033e-01  8.29877597417689e-01  1.89352852636838e-03  6.56318358085003e-04
 8.42000000000000e+10  1.91601230585559e-03  6.31525438060691e-04 -3.15328557608803e-01  8.35487110602427e-01 -3.15328557608803e-01  8.35487110602427e-01  1.91601230585559e-03  6.31525438060691e-04
 8.42500000000000e+10  1.93761227946085e-03  6.05962986645126e-04 -3.00638724315115e-01  8.40840002319548e-01 -3.00638724315115e-01  8.40840002319548e-01  1.93761227946085e-03  6.05962986645126e-04
 8.43000000000000e+10  1.95830213440706e-03  5.79662486373736e-04 -2.85858126841841e-01  8.45934656179118e-01 -2.85858126841841e-01  8.45934656179118e-01  1.95830213440706e-03  5.79662486373736e-04
 8.43500000000000e+10  1.97805667858383e-03  5.52656318594172e-04 -2.70991304049653e-01  8.50769535088874e-01 -2.70991304049653e-01  8.50769535088874e-01  1.97805667858383e-03  5.52656318594172e-04
 8.44000000000000e+10  1.99685187121601e-03  5.24977723601740e-04 -2.56042820793527e-01  8.55343181717552e-01 -2.56042820793527e-01  8.55343181717552e-01  1.99685187121601e-03  5.24977723601740e-04
 8.44500000000000e+10  2.01466485211701e-03  4.96660759729817e-04 -2.41017266521489e-01  8.59654218933728e-01 -2.41017266521489e-01  8.59654218933728e-01  2.01466485211701e-03  4.96660759729817e-04
 8.45000000000000e+10  2.03147396948797e-03  4.67740261444906e-04 -2.25919253865865e-01  8.63701350220073e-01 -2.25919253865865e-01  8.63701350220073e-01  2.03147396948797e-03  4.67740261444906e-04
 8.45500000000000e+10  2.04725880623153e-03  4.38251796498680e-04 -2.10753417227730e-01  8.67483360062840e-01 -2.10753417227730e-01  8.67483360062840e-01  2.04725880623153e-03  4.38251796498680e-04
 8.46000000000000e+10  2.06200020474645e-03  4.08231622188870e-04 -1.95524411354662e-01  8.70999114316532e-01 -1.95524411354662e-01  8.70999114316532e-01  2.06200020474645e-03  4.08231622188870e-04
 8.46500000000000e+10  2.07568029017377e-03  3.77716640783553e-04 -1.80236909912556e-01  8.74247560543596e-01 -1.80236909912556e-01  8.74247560543596e-01  2.07568029017377e-03  3.77716640783553e-04
 8.47000000000000e+10  2.08828249206656e-03  3.46744354163019e-04 -1.64895604051663e-01  8.77227728329074e-01 -1.64895604051663e-01  8.77227728329074e-01  2.08828249206656e-03  3.46744354163019e-04
 8.47500000000000e+10  2.09979156445601e-03  3.15352817735409e-04 -1.49505200967526e-01  8.79938729570075e-01 -1.49505200967526e-01  8.79938729570075e-01  2.09979156445601e-03  3.15352817735409e-04
 8.48000000000000e+10  2.11019360429124e-03  2.83580593682430e-04 -1.34070422457039e-01  8.82379758740044e-01 -1.34070422457039e-01  8.82379758740044e-01  2.11019360429124e-03  2.83580593682430e-04
 8.48500000000000e+10  2.11947606822809e-03  2.51466703592785e-04 -1.18596003470282e-01  8.84550093127684e-01 -1.18596003470282e-01  8.84550093127684e-01  2.11947606822809e-03  2.51466703592785e-04
 8.49000000000000e+10  2.12762778774933e-03  2.19050580541357e-04 -1.03086690658367e-01  8.86449093050510e-01 -1.03086690658367e-01  8.86449093050510e-01  2.12762778774933e-03  2.19050580541357e-04
 8.49500000000000e+10  2.13463898259591e-03  1.86372020673102e-04 -8.75472409179377e-02  8.88076202042951e-01 -8.75472409179377e-02  8.88076202042951e-01  2.13463898259591e-03  1.86372020673102e-04
 8.50000000000000e+10  2.14050127249435e-03  1.53471134351009e-04 -7.19824199325986e-02  8.89430947018940e-01 -7.19824199325986e-02  8.89430947018940e-01  2.14050127249435e-03  1.53471134351009e-04
 8.50500000000000e+10  2.14520768716603e-03  1.20388296928112e-04 -5.63970007118253e-02  8.90512938408965e-01 -5.63970007118253e-02  8.90512938408965e-01  2.14520768716603e-03  1.20388296928112e-04
 8.51000000000000e+10  2.14875267460561e-03  8.71640992039786e-05 -4.07957621277808e-02  8.91321870271522e-01 -4.07957621277808e-02  8.91321870271522e-01  2.14875267460561e-03  8.71640992039786e-05
 8.51500000000000e+10  2.15113210762052e-03  5.38392976264757e-05 -2.51834874504788e-02  8.91857520378944e-01 -2.51834874504788e-02  8.91857520378944e-01  2.15113210762052e-03  5.38392976264757e-05
 8.52000000000000e+10  2.15234328862065e-03  2.04547642997152e-05 -9.56496288169596e-03  8.92119750277597e-01 -9.56496288169596e-03  8.92119750277597e-01  2.15234328862065e-03  2.04547642997152e-05
 8.52500000000000e+10  2.15238495265788e-03 -1.29485631401726e-05  6.05502391183372e-03  8.92108505322401e-01  6.05502391183372e-03  8.92108505322401e-01  2.15238495265788e-03 -1.29485631401726e-05
 8.53000000000000e+10  2.15125726870545e-03 -4.63297317202273e-05  2.16716852655180e-02  8.91823814685688e-01  2.16716852655180e-02  8.91823814685688e-01  2.15125726870545e-03 -4.63297317202273e-05
 8.53500000000000e+10  2.14896183918247e-03 -7.96478233352765e-05  3.72802349839242e-02  8.91265791340391e-01  3.72802349839242e-02  8.91265791340391e-01  2.14896183918247e-03 -7.96478233352765e-05
 8.54000000000000e+10  2.14550169771887e-03 -1.12862004900235e-04  5.28758898071594e-02  8.90434632017568e-01  5.28758898071594e-02  8.90434632017568e-01  2.14550169771887e-03 -1.12862004900235e-04
 8.54500000000000e+10  2.14088130516903e-03 -1.45931578388981e-04  6.84538708762524e-02  8.89330617138281e-01  6.84538708762524e-02  8.89330617138281e-01  2.14088130516903e-03 -1.45931578388981e-04
 8.55000000000000e+10  2.13510654387333e-03 -1.78816030697916e-04  8.40094051970020e-02  8.87954110719854e-01  8.40094051970020e-02  8.87954110719854e-01  2.13510654387333e-03 -1.78816030697916e-04
 8.55500000000000e+10  2.12818471018288e-03 -2.11475083274004e-04  9.95377271019573e-02  8.86305560256530e-01  9.95377271019573e-02  8.86305560256530e-01  2.12818471018288e-03 -2.11475083274004e-04
 8.56000000000000e+10  2.12012450524719e-03 -2.43868741445423e-04  1.15034079709970e-01  8.84385496574584e-01  1.15034079709970e-01  8.84385496574584e-01  2.12012450524719e-03 -2.43868741445423e-04
 8.56500000000000e+10  2.11093602408626e-03 -2.75957343395558e-04  1.30493716382962e-01  8.82194533661924e-01  1.30493716382962e-01  8.82194533661924e-01  2.11093602408626e-03 -2.75957343395558e-04
 8.57000000000000e+10  2.10063074295285e-03 -3.07701608719249e-04  1.45911902179360e-01  8.79733368472237e-01  1.45911902179360e-01  8.79733368472237e-01  2.10063074295285e-03 -3.07701608719249e-04
 8.57500000000000e+10  2.08922150500610e-03 -3.39062686502916e-04  1.61283915303910e-01  8.77002780703748e-01  1.61283915303910e-01  8.77002780703748e-01  2.08922150500610e-03 -3.39062686502916e-04
 8.58000000000000e+10  2.07672250431023e-03 -3.70002202868716e-04  1.76605048553253e-01  8.74003632552657e-01  1.76605048553253e-01  8.74003632552657e-01  2.07672250431023e-03 -3.70002202868716e-04
 8.58500000000000e+10  2.06314926818321e-03 -4.00482307925665e-04  1.91870610756953e-01  8.70736868441326e-01  1.91870610756953e-01  8.70736868441326e-01  2.06314926818321e-03 -4.00482307925665e-04
 8.59000000000000e+10  2.04851863791143e-03 -4.30465722069066e-04  2.07075928213442e-01  8.67203514721321e-01  2.07075928213442e-01  8.67203514721321e-01  2.04851863791143e-03 -4.30465722069066e-04
 8.59500000000000e+10  2.03284874785941e-03 -4.59915781572553e-04  2.22216346120541e-01  8.63404679351371e-01  2.22216346120541e-01  8.63404679351371e-01  2.03284874785941e-03 -4.59915781572553e-04
 8.60000000000000e+10  2.01615900299733e-03 -4.88796483416769e-04  2.37287230000024e-01  8.59341551550377e-01  2.37287230000024e-01  8.59341551550377e-01  2.01615900299733e-03 -4.88796483416769e-04
 8.60500000000000e+10  1.99847005487606e-03 -5.17072529299535e-04  2.52283967115846e-01  8.55015401425552e-01  2.52283967115846e-01  8.55015401425552e-01  1.99847005487606e-03 -5.17072529299535e-04
 8.61000000000000e+10  1.97980377607710e-03 -5.44709368773884e-04  2.67201967885599e-01  8.50427579575829e-01  2.67201967885599e-01  8.50427579575829e-01  1.97980377607710e-03 -5.44709368773884e-04
 8.61500000000000e+10  1.96018323317288e-03 -5.71673241461880e-04  2.82036667284733e-01  8.45579516670641e-01  2.82036667284733e-01  8.45579516670641e-01  1.96018323317288e-03 -5.71673241461880e-04
 8.62000000000000e+10  1.93963265822673e-03 -5.97931218291492e-04  2.96783526243149e-01  8.40472723004219e-01  2.96783526243149e-01  8.40472723004219e-01  1.93963265822673e-03 -5.97931218291492e-04
 8.62500000000000e+10  1.91817741886942e-03 -6.23451241706856e-04  3.11438033033721e-01  8.35108788025541e-01  3.11438033033721e-01  8.35108788025541e-01  1.91817741886942e-03 -6.23451241706856e-04
 8.63000000000000e+10  1.89584398699117e-03 -6.48202164803355e-04  3.25995704652308e-01  8.29489379844074e-01  3.25995704652308e-01  8.29489379844074e-01  1.89584398699117e-03 -6.48202164803355e-04
 8.63500000000000e+10  1.87265990608365e-03 -6.72153789338081e-04  3.40452088188880e-01  8.23616244711462e-01  3.40452088188880e-01  8.23616244711462e-01  1.87265990608365e-03 -6.72153789338081e-04
 8.64000000000000e+10  1.84865375727591e-03 -6.95276902571377e-04  3.54802762189278e-01  8.17491206479325e-01  3.54802762189278e-01  8.17491206479325e-01  1.84865375727591e-03 -6.95276902571377e-04
 8.64500000000000e+10  1.82385512410419e-03 -7.17543312892768e-04  3.69043338007245e-01  8.11116166033342e-01  3.69043338007245e-01  8.11116166033342e-01  1.82385512410419e-03 -7.17543312892768e-04
 8.65000000000000e+10  1.79829455605978e-03 -7.38925884188953e-04  3.83169461146282e-01  8.04493100703771e-01  3.83169461146282e-01  8.04493100703771e-01  1.79829455605978e-03 -7.38925884188953e-04
 8.65500000000000e+10  1.77200353095899e-03 -7.59398568911281e-04  3.97176812590934e-01  7.97624063652609e-01  3.97176812590934e-01  7.97624063652609e-01  1.77200353095899e-03 -7.59398568911281e-04
 8.66000000000000e+10  1.74501441618342e-03 -7.78936439803123e-04  4.11061110127098e-01  7.90511183237580e-01  4.11061110127098e-01  7.90511183237580e-01  1.74501441618342e-03 -7.78936439803123e-04
 8.66500000000000e+10  1.71736042883534e-03 -7.97515720247496e-04  4.24818109650936e-01  7.83156662353130e-01  4.24818109650936e-01  7.83156662353130e-01  1.71736042883534e-03 -7.97515720247496e-04
 8.67000000000000e+10  1.68907559486026e-03 -8.15113813199168e-04  4.38443606466034e-01  7.75562777748645e-01  4.38443606466034e-01  7.75562777748645e-01  1.68907559486026e-03 -8.15113813199168e-04
 8.67500000000000e+10  1.66019470718513e-03 -8.31709328665086e-04  4.51933436568336e-01  7.67731879324111e-01  4.51933436568336e-01  7.67731879324111e-01  1.66019470718513e-03 -8.31709328665086e-04
 8.68000000000000e+10  1.63075328292357e-03 -8.47282109699926e-04  4.65283477918551e-01  7.59666389403407e-01  4.65283477918551e-01  7.59666389403407e-01  1.63075328292357e-03 -8.47282109699926e-04
 8.68500000000000e+10  1.60078751970263e-03 -8.61813256886140e-04  4.78489651701548e-01  7.51368801985491e-01  4.78489651701548e-01  7.51368801985491e-01  1.60078751970263e-03 -8.61813256886140e-04
 8.69000000000000e+10  1.57033425116213e-03 -8.75285151266849e-04  4.91547923572473e-01  7.42841681973655e-01  4.91547923572473e-01  7.42841681973655e-01  1.57033425116213e-03 -8.75285151266849e-04
 8.69500000000000e+10  1.53943090168322e-03 -8.87681475705675e-04  5.04454304889082e-01  7.34087664383154e-01  5.04454304889082e-01  7.34087664383154e-01  1.53943090168322e-03 -8.87681475705675e-04
 8.70000000000000e+10  1.50811544040152e-03 -8.98987234646453e-04  5.17204853929986e-01  7.25109453527401e-01  5.17204853929986e-01  7.25109453527401e-01  1.50811544040152e-03 -8.98987234646453e-04
 8.70500000000000e+10  1.47642633456030e-03 -9.09188772249254e-04  5.29795677098425e-01  7.15909822183008e-01  5.29795677098425e-01  7.15909822183008e-01  1.47642633456030e-03 -9.09188772249254e-04
 8.71000000000000e+10  1.44440250226232e-03 -9.18273788881114e-04  5.42222930111209e-01  7.06491610733896e-01  5.42222930111209e-01  7.06491610733896e-01  1.44440250226232e-03 -9.18273788881114e-04
 8.71500000000000e+10  1.41208326467722e-03 -9.26231355940661e-04  5.54482819172438e-01  6.96857726294778e-01  5.54482819172438e-01  6.96857726294778e-01  1.41208326467722e-03 -9.26231355940661e-04
 8.72000000000000e+10  1.37950829776443e-03 -9.33051928999924e-04  5.66571602131659e-01  6.87011141814268e-01  5.66571602131659e-01  6.87011141814268e-01  1.37950829776443e-03 -9.33051928999924e-04
 8.72500000000000e+10  1.34671758356918e-03 -9.38727359246476e-04  5.78485589626098e-01  6.76954895157883e-01  5.78485589626098e-01  6.76954895157883e-01  1.34671758356918e-03 -9.38727359246476e-04
 8.73000000000000e+10  1.31375136115332e-03 -9.43250903212976e-04  5.90221146206647e-01  6.66692088171217e-01  5.90221146206647e-01  6.66692088171217e-01  1.31375136115332e-03 -9.43250903212976e-04
 8.73500000000000e+10  1.28065007721891e-03 -9.46617230781943e-04  6.01774691447224e-01  6.56225885723600e-01  6.01774691447224e-01  6.56225885723600e-01  1.28065007721891e-03 -9.46617230781943e-04
 8.74000000000000e+10  1.24745433648780e-03 -9.48822431456513e-04  6.13142701037174e-01  6.45559514732516e-01  6.13142701037174e-01  6.45559514732516e-01  1.24745433648780e-03 -9.48822431456513e-04
 8.74500000000000e+10  1.21420485189578e-03 -9.49864018890212e-04  6.24321707856384e-01  6.34696263169096e-01  6.24321707856384e-01  6.34696263169096e-01  1.21420485189578e-03 -9.49864018890212e-04
 8.75000000000000e+10  1.18094239466378e-03 -9.49740933669712e-04  6.35308303032824e-01  6.23639479044950e-01  6.35308303032824e-01  6.23639479044950e-01  1.18094239466378e-03 -9.49740933669712e-04
 8.75500000000000e+10  1.14770774430626e-03 -9.48453544347574e-04  6.46099136982105e-01  6.12392569380703e-01  6.46099136982105e-01  6.12392569380703e-01  1.14770774430626e-03 -9.48453544347574e-04
 8.76000000000000e+10  1.11454163863932e-03 -9.46003646725152e-04  6.56690920428801e-01  6.00958999156536e-01  6.56690920428801e-01  6.00958999156536e-01  1.11454163863932e-03 -9.46003646725152e-04
 8.76500000000000e+10  1.08148472384907e-03 -9.42394461385302e-04  6.67080425409202e-01  5.89342290245038e-01  6.67080425409202e-01  5.89342290245038e-01  1.08148472384907e-03 -9.42394461385302e-04
 8.77000000000000e+10  1.04857750468115e-03 -9.37630629479390e-04  6.77264486255210e-01  5.77546020326693e-01  6.77264486255210e-01  5.77546020326693e-01  1.04857750468115e-03 -9.37630629479390e-04
 8.77500000000000e+10  1.01586029481337e-03 -9.31718206773328e-04  6.87240000559045e-01  5.65573821788366e-01  6.87240000559045e-01  5.65573821788366e-01  1.01586029481337e-03 -9.31718206773328e-04
 8.78000000000000e+10  9.83373167471274e-04 -9.24664655960912e-04  6.97003930118489e-01  5.53429380605115e-01  6.97003930118489e-01  5.53429380605115e-01  9.83373167471274e-04 -9.24664655960912e-04
 8.78500000000000e+10  9.51155906348157e-04 -9.16478837253757e-04  7.06553301862367e-01  5.41116435205660e-01  7.06553301862367e-01  5.41116435205660e-01  9.51155906348157e-04 -9.16478837253757e-04
 8.79000000000000e+10  9.19247956888694e-04 -9.07170997259678e-04  7.15885208756008e-01  5.28638775321850e-01  7.15885208756008e-01  5.28638775321850e-01  9.19247956888694e-04 -9.07170997259678e-04
 8.79500000000000e+10  8.87688377995964e-04 -8.96752756163746e-04  7.24996810686379e-01  5.16000240822517e-01  7.24996810686379e-01  5.16000240822517e-01  8.87688377995964e-04 -8.96752756163746e-04
 8.80000000000000e+10  8.56515794222183e-04 -8.85237093227857e-04  7.33885335326628e-01  5.03204720532052e-01  7.33885335326628e-01  5.03204720532052e-01  8.56515794222183e-04 -8.85237093227857e-04
 8.80500000000000e+10  8.25768348499836e-04 -8.72638330626916e-04  7.42548078979775e-01  4.90256151034078e-01  7.42548078979775e-01  4.90256151034078e-01  8.25768348499836e-04 -8.72638330626916e-04
 8.81000000000000e+10  7.95483655472323e-04 -8.58972115641586e-04  7.50982407401326e-01  4.77158515460544e-01  7.50982407401326e-01  4.77158515460544e-01  7.95483655472323e-04 -8.58972115641586e-04
 8.81500000000000e+10  7.65698755480976e-04 -8.44255401230396e-04  7.59185756600491e-01  4.63915842266691e-01  7.59185756600491e-01  4.63915842266691e-01  7.65698755480976e-04 -8.44255401230396e-04
 8.82000000000000e+10  7.36450069264182e-04 -8.28506425004230e-04  7.67155633619825e-01  4.50532203992183e-01  7.67155633619825e-01  4.50532203992183e-01  7.36450069264182e-04 -8.28506425004230e-04
 8.82500000000000e+10  7.07773353425160e-04 -8.11744686630271e-04  7.74889617293005e-01  4.37011716008880e-01  7.74889617293005e-01  4.37011716008880e-01  7.07773353425160e-04 -8.11744686630271e-04
 8.83000000000000e+10  6.79703656721248e-04 -7.93990923693032e-04  7.82385358980566e-01  4.23358535255506e-01  7.82385358980566e-01  4.23358535255506e-01  6.79703656721248e-04 -7.93990923693032e-04
 8.83500000000000e+10  6.52275277229978e-04 -7.75267086041941e-04  7.89640583283310e-01  4.09576858959753e-01  7.89640583283310e-01  4.09576858959753e-01  6.52275277229978e-04 -7.75267086041941e-04
 8.84000000000000e+10  6.25521720442328e-04 -7.55596308657814e-04  7.96653088733229e-01  3.95670923348066e-01  7.96653088733229e-01  3.95670923348066e-01  6.25521720442328e-04 -7.55596308657814e-04
 8.84500000000000e+10  5.99475658336131e-04 -7.35002883071641e-04  8.03420748461678e-01  3.81645002343644e-01  8.03420748461678e-01  3.81645002343644e-01  5.99475658336131e-04 -7.35002883071641e-04
 8.85000000000000e+10  5.74168889478470e-04 -7.13512227370603e-04  8.09941510844637e-01  3.67503406252937e-01  8.09941510844637e-01  3.67503406252937e-01  5.74168889478470e-04 -7.13512227370603e-04
 8.85500000000000e+10  5.49632300206538e-04 -6.91150854828680e-04  8.16213400124838e-01  3.53250480441149e-01  8.16213400124838e-01  3.53250480441149e-01  5.49632300206538e-04 -6.91150854828680e-04
 8.86000000000000e+10  5.25895826933312e-04 -6.67946341200396e-04  8.22234517010595e-01  3.38890603997031e-01  8.22234517010595e-01  3.38890603997031e-01  5.25895826933312e-04 -6.67946341200396e-04
 8.86500000000000e+10  5.02988419625202e-04 -6.43927290718579e-04  8.28003039251121e-01  3.24428188387494e-01  8.28003039251121e-01  3.24428188387494e-01  5.02988419625202e-04 -6.43927290718579e-04
 8.87000000000000e+10  4.80938006496099e-04 -6.19123300836706e-04  8.33517222188166e-01  3.09867676102437e-01  8.33517222188166e-01  3.09867676102437e-01  4.80938006496099e-04 -6.19123300836706e-04
 8.87500000000000e+10  4.59771459959628e-04 -5.93564925761311e-04  8.38775399283842e-01  2.95213539290095e-01  8.38775399283842e-01  2.95213539290095e-01  4.59771459959628e-04 -5.93564925761311e-04
 8.88000000000000e+10  4.39514563882481e-04 -5.67283638817137e-04  8.43775982624435e-01  2.80470278383454e-01  8.43775982624435e-01  2.80470278383454e-01  4.39514563882481e-04 -5.67283638817137e-04
 8.88500000000000e+10  4.20191982178852e-04 -5.40311793693386e-04  8.48517463400058e-01  2.65642420718107e-01  8.48517463400058e-01  2.65642420718107e-01  4.20191982178852e-04 -5.40311793693386e-04
 8.89000000000000e+10  4.01827228782193e-04 -5.12682584617601e-04  8.52998412360011e-01  2.50734519141992e-01  8.52998412360011e-01  2.50734519141992e-01  4.01827228782193e-04 -5.12682584617601e-04
 8.89500000000000e+10  3.84442639033958e-04 -4.84430005506143e-04  8.57217480243706e-01  2.35751150617393e-01  8.57217480243706e-01  2.35751150617393e-01  3.84442639033958e-04 -4.84430005506143e-04
 8.90000000000000e+10  3.68059342521416e-04 -4.55588808142578e-04  8.61173398187030e-01  2.20696914815670e-01  8.61173398187030e-01  2.20696914815670e-01  3.68059342521416e-04 -4.55588808142578e-04
 8.90500000000000e+10  3.52697237398782e-04 -4.26194459434017e-04  8.64864978104006e-01  2.05576432705165e-01  8.64864978104006e-01  2.05576432705165e-01  3.52697237398782e-04 -4.26194459434017e-04
 8.91000000000000e+10  3.38374966223450e-04 -3.96283097799364e-04  8.68291113043655e-01  1.90394345132705e-01  8.68291113043655e-01  1.90394345132705e-01  3.38374966223450e-04 -3.96283097799364e-04
 8.91500000000000e+10  3.25109893334695e-04 -3.65891488742083e-04  8.71450777521943e-01  1.75155311399109e-01  8.71450777521943e-01  1.75155311399109e-01  3.25109893334695e-04 -3.65891488742083e-04
 8.92000000000000e+10  3.12918083805012e-04 -3.35056979662251e-04  8.74343027828724e-01  1.59864007829151e-01  8.74343027828724e-01  1.59864007829151e-01  3.12918083805012e-04 -3.35056979662251e-04
 8.92500000000000e+10  3.01814283986842e-04 -3.03817453964160e-04  8.76967002309566e-01  1.44525126336442e-01  8.76967002309566e-01  1.44525126336442e-01  3.01814283986842e-04 -3.03817453964160e-04
 8.93000000000000e+10  2.91811903680396e-04 -2.72211284514977e-04  8.79321921622384e-01  1.29143372983711e-01  8.79321921622384e-01  1.29143372983711e-01  2.91811903680396e-04 -2.72211284514977e-04
 8.93500000000000e+10  2.82922999943285e-04 -2.40277286512023e-04  8.81407088968822e-01  1.13723466538770e-01  8.81407088968822e-01  1.13723466538770e-01  2.82922999943285e-04 -2.40277286512023e-04
 8.94000000000000e+10  2.75158262560550e-04 -2.08054669816703e-04  8.83221890300286e-01  9.82701370267706e-02  8.83221890300286e-01  9.82701370267706e-02  2.75158262560550e-04 -2.08054669816703e-04
 8.94500000000000e+10  2.68527001195330e-04 -1.75582990813227e-04  8.84765794498583e-01  8.27881242791508e-02  8.84765794498583e-01  8.27881242791508e-02  2.68527001195330e-04 -1.75582990813227e-04
 8.95000000000000e+10  2.63037134231250e-04 -1.42902103851783e-04  8.86038353531110e-01  6.72821764796674e-02  8.86038353531110e-01  6.72821764796674e-02  2.63037134231250e-04 -1.42902103851783e-04
 8.95500000000000e+10  2.58695179325639e-04 -1.10052112335065e-04  8.87039202580549e-01  5.17570487080291e-02  8.87039202580549e-01  5.17570487080291e-02  2.58695179325639e-04 -1.10052112335065e-04
 8.96000000000000e+10  2.55506245679040e-04 -7.70733195088840e-05  8.87768060149021e-01  3.62175014815165e-02  8.87768060149021e-01  3.62175014815165e-02  2.55506245679040e-04 -7.70733195088840e-05
 8.96500000000000e+10  2.53474028033870e-04 -4.40061790167651e-05  8.88224728136689e-01  2.06682992950821e-02  8.88224728136689e-01  2.06682992950821e-02  2.53474028033870e-04 -4.40061790167651e-05
 8.97000000000000e+10  2.52600802408630e-04 -1.08912452794063e-05  8.88409091894757e-01  5.11420916037345e-03  8.88409091894757e-01  5.11420916037345e-03  2.52600802408630e-04 -1.08912452794063e-05
 8.97500000000000e+10  2.52887423571287e-04  2.22308762401297e-05  8.88321120252892e-01 -1.04400008558777e-02  8.88321120252892e-01 -1.04400008558777e-02  2.52887423571287e-04  2.22308762401297e-05
 8.98000000000000e+10  2.54333324255740e-04  5.53195788246746e-05  8.87960865521021e-01 -2.59895630936998e-02  8.87960865521021e-01 -2.59895630936998e-02  2.54333324255740e-04  5.53195788246746e-05
 8.98500000000000e+10  2.56936516122411e-04  8.83343042833914e-05  8.87328463465534e-01 -4.15297117614209e-02  8.87328463465534e-01 -4.15297117614209e-02  2.56936516122411e-04  8.83343042833914e-05
 8.99000000000000e+10  2.60693592459793e-04  1.21234592663445e-04  8.86424133259892e-01 -5.70556843965023e-02  8.86424133259892e-01 -5.70556843965023e-02  2.60693592459793e-04  1.21234592663445e-04
 8.99500000000000e+10  2.65599732624834e-04  1.53980131832061e-04  8.85248177409655e-01 -7.25627233252234e-02  8.85248177409655e-01 -7.25627233252234e-02  2.65599732624834e-04  1.53980131832061e-04
 9.00000000000000e+10  2.71648708215997e-04  1.86530806868078e-04  8.83800981651965e-01 -8.80460771207737e-02  8.83800981651965e-01 -8.80460771207737e-02  2.71648708215997e-04  1.86530806868078e-04
 9.00500000000000e+10  2.78832890970142e-04  2.18846749202632e-04  8.82083014829503e-01 -1.03501002059278e-01  8.82083014829503e-01 -1.03501002059278e-01  2.78832890970142e-04  2.18846749202632e-04
 9.01000000000000e+10  2.87143262375493e-04  2.50888385448528e-04  8.80094828738977e-01 -1.18922763573308e-01  8.80094828738977e-01 -1.18922763573308e-01  2.87143262375493e-04  2.50888385448528e-04
 9.01500000000000e+10  2.96569424985874e-04  2.82616485858695e-04  8.77837057954181e-01 -1.34306637702461e-01  8.77837057954181e-01 -1.34306637702461e-01  2.96569424985874e-04  2.82616485858695e-04
 9.02000000000000e+10  3.07099615423777e-04  3.13992212354561e-04  8.75310419623678e-01 -1.49647912540558e-01  8.75310419623678e-01 -1.49647912540558e-01  3.07099615423777e-04  3.13992212354561e-04
 9.02500000000000e+10  3.18720719055579e-04  3.44977166064830e-04  8.72515713243185e-01 -1.64941889678998e-01  8.72515713243185e-01 -1.64941889678998e-01  3.18720719055579e-04  3.44977166064830e-04
 9.03000000000000e+10  3.31418286320263e-04  3.75533434317605e-04  8.69453820402724e-01 -1.80183885645781e-01  8.69453820402724e-01 -1.80183885645781e-01  3.31418286320263e-04  3.75533434317605e-04
 9.03500000000000e+10  3.45176550692500e-04  4.05623637027064e-04  8.66125704508604e-01 -1.95369233339944e-01  8.66125704508604e-01 -1.95369233339944e-01  3.45176550692500e-04  4.05623637027064e-04
 9.04000000000000e+10  3.59978448255386e-04  4.35210972419049e-04  8.62532410480374e-01 -2.10493283460650e-01  8.62532410480374e-01 -2.10493283460650e-01  3.59978448255386e-04  4.35210972419049e-04
 9.04500000000000e+10  3.75805638861159e-04  4.64259262038956e-04  8.58675064422760e-01 -2.25551405930866e-01  8.58675064422760e-01 -2.25551405930866e-01  3.75805638861159e-04  4.64259262038956e-04
 9.05000000000000e+10  3.92638528852603e-04  4.92732994987082e-04  8.54554873272783e-01 -2.40538991314851e-01  8.54554873272783e-01 -2.40538991314851e-01  3.92638528852603e-04  4.92732994987082e-04
 9.05500000000000e+10  4.10456295315851e-04  5.20597371327466e-04  8.50173124422079e-01 -2.55451452229296e-01  8.50173124422079e-01 -2.55451452229296e-01  4.10456295315851e-04  5.20597371327466e-04
 9.06000000000000e+10  4.29236911836533e-04  5.47818344616937e-04  8.45531185314627e-01 -2.70284224747454e-01  8.45531185314627e-01 -2.70284224747454e-01  4.29236911836533e-04  5.47818344616937e-04
 9.06500000000000e+10  4.48957175726745e-04  5.74362663502455e-04  8.40630503019920e-01 -2.85032769796038e-01  8.40630503019920e-01 -2.85032769796038e-01  4.48957175726745e-04  5.74362663502455e-04
 9.07000000000000e+10  4.69592736687574e-04  6.00197912336221e-04  8.35472603781811e-01 -2.99692574544262e-01  8.35472603781811e-01 -2.99692574544262e-01  4.69592736687574e-04  6.00197912336221e-04
 9.07500000000000e+10  4.91118126874708e-04  6.25292550758557e-04  8.30059092543073e-01 -3.14259153784792e-01  8.30059092543073e-01 -3.14259153784792e-01  4.91118126874708e-04  6.25292550758557e-04
 9.08000000000000e+10  5.13506792327340e-04  6.49615952200065e-04  8.24391652445922e-01 -3.28728051305987e-01  8.24391652445922e-01 -3.28728051305987e-01  5.13506792327340e-04  6.49615952200065e-04
 9.08500000000000e+10  5.36731125723447e-04  6.73138441256959e-04  8.18472044308566e-01 -3.43094841255209e-01  8.18472044308566e-01 -3.43094841255209e-01  5.36731125723447e-04  6.73138441256959e-04
 9.09000000000000e+10  5.60762500419626e-04  6.95831329892862e-04  8.12302106078036e-01 -3.57355129492584e-01  8.12302106078036e-01 -3.57355129492584e-01  5.60762500419626e-04  6.95831329892862e-04
 9.09500000000000e+10  5.85571305734516e-04  7.17666952423942e-04  8.05883752259358e-01 -3.71504554935025e-01  8.05883752259358e-01 -3.71504554935025e-01  5.85571305734516e-04  7.17666952423942e-04
 9.10000000000000e+10  6.11126983431962e-04  7.38618699243467e-04  7.99218973321385e-01 -3.85538790889834e-01  7.99218973321385e-01 -3.85538790889834e-01  6.11126983431962e-04  7.38618699243467e-04
 9.10500000000000e+10  6.37398065359041e-04  7.58661049246033e-04  7.92309835079332e-01 -3.99453546377751e-01  7.92309835079332e-01 -3.99453546377751e-01  6.37398065359041e-04  7.58661049246033e-04
 9.11000000000000e+10  6.64352212191883e-04  7.77769600911137e-04  7.85158478054298e-01 -4.13244567444859e-01  7.85158478054298e-01 -4.13244567444859e-01  6.64352212191883e-04  7.77769600911137e-04
 9.11500000000000e+10  6.91956253243288e-04  7.95921102008520e-04  7.77767116809950e-01 -4.26907638463003e-01  7.77767116809950e-01 -4.26907638463003e-01  6.91956253243288e-04  7.95921102008520e-04
 9.12000000000000e+10  7.20176227281179e-04  8.13093477888770e-04  7.70138039266575e-01 -4.40438583418319e-01  7.70138039266575e-01 -4.40438583418319e-01  7.20176227281179e-04  8.13093477888770e-04
 9.12500000000000e+10  7.48977424308748e-04  8.29265858325256e-04  7.62273605992698e-01 -4.53833267187504e-01  7.62273605992698e-01 -4.53833267187504e-01  7.48977424308748e-04  8.29265858325256e-04
 9.13000000000000e+10  7.78324428255353e-04  8.44418602874675e-04  7.54176249474498e-01 -4.67087596801434e-01  7.54176249474498e-01 -4.67087596801434e-01  7.78324428255353e-04  8.44418602874675e-04
 9.13500000000000e+10  8.08181160523669e-04  8.58533324724982e-04  7.45848473363280e-01 -4.80197522695650e-01  7.45848473363280e-01 -4.80197522695650e-01  8.08181160523669e-04  8.58533324724982e-04
 9.14000000000000e+10  8.38510924342256e-04  8.71592913002313e-04  7.37292851701167e-01 -4.93159039947504e-01  7.37292851701167e-01 -4.93159039947504e-01  8.38510924342256e-04  8.71592913002313e-04
 9.14500000000000e+10  8.69276449866816e-04  8.83581553509048e-04  7.28512028125331e-01 -5.05968189499410e-01  7.28512028125331e-01 -5.05968189499410e-01  8.69276449866816e-04  8.83581553509048e-04
 9.15000000000000e+10  9.00439939975818e-04  8.94484747869556e-04  7.19508715050916e-01 -5.18621059367985e-01  7.19508715050916e-01 -5.18621059367985e-01  9.00439939975818e-04  8.94484747869556e-04
 9.15500000000000e+10  9.31963116703765e-04  9.04289331057821e-04  7.10285692833047e-01 -5.31113785838532e-01  7.10285692833047e-01 -5.31113785838532e-01  9.31963116703765e-04  9.04289331057821e-04
 9.16000000000000e+10  9.63807268255494e-04  9.12983487288568e-04  7.00845808908009e-01 -5.43442554644703e-01  7.00845808908009e-01 -5.43442554644703e-01  9.63807268255494e-04  9.12983487288568e-04
 9.16500000000000e+10  9.95933296543388e-04  9.20556764250458e-04  6.91191976914010e-01 -5.55603602132814e-01  6.91191976914010e-01 -5.55603602132814e-01  9.95933296543388e-04  9.20556764250458e-04
 9.17000000000000e+10  1.02830176518901e-03  9.27000085665838e-04  6.81327175791710e-01 -5.67593216410566e-01  6.81327175791710e-01 -5.67593216410566e-01  1.02830176518901e-03  9.27000085665838e-04
 9.17500000000000e+10  1.06087294793081e-03  9.32305762161025e-04  6.71254448864877e-01 -5.79407738479717e-01  6.71254448864877e-01 -5.79407738479717e-01  1.06087294793081e-03  9.32305762161025e-04
 9.18000000000000e+10  1.09360687737807e-03  9.36467500434082e-04  6.60976902901328e-01 -5.91043563352502e-01  6.60976902901328e-01 -5.91043563352502e-01  1.09360687737807e-03  9.36467500434082e-04
 9.18500000000000e+10  1.12646339405080e-03  9.39480410710257e-04  6.50497707154592e-01 -6.02497141151317e-01  6.50497707154592e-01 -6.02497141151317e-01  1.12646339405080e-03  9.39480410710257e-04
 9.19000000000000e+10  1.15940219564717e-03  9.41341012474450e-04  6.39820092386465e-01 -6.13764978191448e-01  6.39820092386465e-01 -6.13764978191448e-01  1.15940219564717e-03  9.41341012474450e-04
 9.19500000000000e+10  1.19238288647523e-03  9.42047238476163e-04  6.28947349870884e-01 -6.24843638046382e-01  6.28947349870884e-01 -6.24843638046382e-01  1.19238288647523e-03  9.42047238476163e-04
 9.20000000000000e+10  1.22536502699106e-03  9.41598437000451e-04  6.17882830379281e-01 -6.35729742595563e-01  6.17882830379281e-01 -6.35729742595563e-01  1.22536502699106e-03  9.41598437000451e-04
 9.20500000000000e+10  1.25830818338098e-03  9.39995372403243e-04  6.06629943147862e-01 -6.46419973054085e-01  6.06629943147862e-01 -6.46419973054085e-01  1.25830818338098e-03  9.39995372403243e-04
 9.21000000000000e+10  1.29117197712725e-03  9.37240223911017e-04  5.95192154827056e-01 -6.56911070984124e-01  5.95192154827056e-01 -6.56911070984124e-01  1.29117197712725e-03  9.37240223911017e-04
 9.21500000000000e+10  1.32391613449733e-03  9.33336582686196e-04  5.83572988413487e-01 -6.67199839287772e-01  5.83572988413487e-01 -6.67199839287772e-01  1.32391613449733e-03  9.33336582686196e-04
 9.22000000000000e+10  1.35650053589490e-03  9.28289447162005e-04  5.71776022164781e-01 -6.77283143180953e-01  5.71776022164781e-01 -6.77283143180953e-01  1.35650053589490e-03  9.28289447162005e-04
 9.22500000000000e+10  1.38888526501262e-03  9.22105216653150e-04  5.59804888497562e-01 -6.87157911148154e-01  5.59804888497562e-01 -6.87157911148154e-01  1.38888526501262e-03  9.22105216653150e-04
 9.23000000000000e+10  1.42103065772723e-03  9.14791683250802e-04  5.47663272868957e-01 -6.96821135877659e-01  5.47663272868957e-01 -6.96821135877659e-01  1.42103065772723e-03  9.14791683250802e-04
 9.23500000000000e+10  1.45289735067556e-03  9.06358022011317e-04  5.35354912641970e-01 -7.06269875177020e-01  5.35354912641970e-01 -7.06269875177020e-01  1.45289735067556e-03  9.06358022011317e-04
 9.24000000000000e+10  1.48444632945319e-03  8.96814779451569e-04  5.22883595935088e-01 -7.15501252868449e-01  5.22883595935088e-01 -7.15501252868449e-01  1.48444632945319e-03  8.96814779451569e-04
 9.24500000000000e+10  1.51563897637628e-03  8.86173860365419e-04  5.10253160456386e-01 -7.24512459663949e-01  5.10253160456386e-01 -7.24512459663949e-01  1.51563897637628e-03  8.86173860365419e-04
 9.25000000000000e+10  1.54643711774815e-03  8.74448512977501e-04  4.97467492322675e-01 -7.33300754019770e-01  4.97467492322675e-01 -7.33300754019770e-01  1.54643711774815e-03  8.74448512977501e-04
 9.25500000000000e+10  1.57680307057288e-03  8.61653312452971e-04  4.84530524863820e-01 -7.41863462970101e-01  4.84530524863820e-01 -7.41863462970101e-01  1.57680307057288e-03  8.61653312452971e-04
 9.26000000000000e+10  1.60669968865854e-03  8.47804142783682e-04  4.71446237412797e-01 -7.50197982939613e-01  4.71446237412797e-01 -7.50197982939613e-01  1.60669968865854e-03  8.47804142783682e-04
 9.26500000000000e+10  1.63609040805343e-03  8.32918177073285e-04  4.58218654081747e-01 -7.58301780534673e-01  4.58218654081747e-01 -7.58301780534673e-01  1.63609040805343e-03  8.32918177073285e-04
 9.27000000000000e+10  1.66493929176123e-03  8.17013856246033e-04  4.44851842524447e-01 -7.66172393312969e-01  4.44851842524447e-01 -7.66172393312969e-01  1.66493929176123e-03  8.17013856246033e-04
 9.27500000000000e+10  1.69321107367787e-03  8.00110866204985e-04  4.31349912685564e-01 -7.73807430531321e-01  4.31349912685564e-01 -7.73807430531321e-01  1.69321107367787e-03  8.00110866204985e-04
 9.28000000000000e+10  1.72087120169890e-03  7.82230113468814e-04  4.17717015537089e-01 -7.81204573871444e-01  4.17717015537089e-01 -7.81204573871444e-01  1.72087120169890e-03  7.82230113468814e-04
 9.28500000000000e+10  1.74788587994255e-03  7.63393699316410e-04  4.03957341802324e-01 -7.88361578143450e-01  4.03957341802324e-01 -7.88361578143450e-01  1.74788587994255e-03  7.63393699316410e-04
 9.29000000000000e+10  1.77422211003949e-03  7.43624892472258e-04  3.90075120667826e-01 -7.95276271966869e-01  3.90075120667826e-01 -7.95276271966869e-01  1.77422211003949e-03  7.43624892472258e-04
 9.29500000000000e+10  1.79984773143561e-03  7.22948100365438e-04  3.76074618483702e-01 -8.01946558429000e-01  3.76074618483702e-01 -8.01946558429000e-01  1.79984773143561e-03  7.22948100365438e-04
 9.30000000000000e+10  1.82473146066099e-03  7.01388838998163e-04  3.61960137452651e-01 -8.08370415720363e-01  3.61960137452651e-01 -8.08370415720363e-01  1.82473146066099e-03  7.01388838998163e-04
 9.30500000000000e+10  1.84884292951690e-03  6.78973701461215e-04  3.47736014308147e-01 -8.14545897747099e-01  3.47736014308147e-01 -8.14545897747099e-01  1.84884292951690e-03  6.78973701461215e-04
 9.31000000000000e+10  1.87215272213264e-03  6.55730325134726e-04  3.33406618982222e-01 -8.20471134720090e-01  3.33406618982222e-01 -8.20471134720090e-01  1.87215272213264e-03  6.55730325134726e-04
 9.31500000000000e+10  1.89463241084934e-03  6.31687357615057e-04  3.18976353263116e-01 -8.26144333720677e-01  3.18976353263116e-01 -8.26144333720677e-01  1.89463241084934e-03  6.31687357615057e-04
 9.32000000000000e+10  1.91625459088461e-03  6.06874421409699e-04  3.04449649443429e-01 -8.31563779242740e-01  3.04449649443429e-01 -8.31563779242740e-01  1.91625459088461e-03  6.06874421409699e-04
 9.32500000000000e+10  1.93699291373775e-03  5.81322077443609e-04  2.89830968958996e-01 -8.36727833711022e-01  2.89830968958996e-01 -8.36727833711022e-01  1.93699291373775e-03  5.81322077443609e-04
 9.33000000000000e+10  1.95682211929301e-03  5.55061787421877e-04  2.75124801018961e-01 -8.41634937975543e-01  2.75124801018961e-01 -8.41634937975543e-01  1.95682211929301e-03  5.55061787421877e-04
 9.33500000000000e+10  1.97571806658398e-03  5.28125875095582e-04  2.60335661227501e-01 -8.46283611781932e-01  2.60335661227501e-01 -8.46283611781932e-01  1.97571806658398e-03  5.28125875095582e-04
 9.34000000000000e+10  1.99365776317940e-03  5.00547486477832e-04  2.45468090197628e-01 -8.50672454217533e-01  2.45468090197628e-01 -8.50672454217533e-01  1.99365776317940e-03  5.00547486477832e-04
 9.34500000000000e+10  2.01061939315580e-03  4.72360549059222e-04  2.30526652157447e-01 -8.54800144133185e-01  2.30526652157447e-01 -8.54800144133185e-01  2.01061939315580e-03  4.72360549059222e-04
 9.35000000000000e+10  2.02658234362316e-03  4.43599730073180e-04  2.15515933549291e-01 -8.58665440540516e-01  2.15515933549291e-01 -8.58665440540516e-01  2.02658234362316e-03  4.43599730073180e-04
 9.35500000000000e+10  2.04152722977089e-03  4.14300393862058e-04  2.00440541622221e-01 -8.62267182984662e-01  2.00440541622221e-01 -8.62267182984662e-01  2.04152722977089e-03  4.14300393862058e-04
 9.36000000000000e+10  2.05543591840281e-03  3.84498558396505e-04  1.85305103018306e-01 -8.65604291892255e-01  1.85305103018306e-01 -8.65604291892255e-01  2.05543591840281e-03  3.84498558396505e-04
 9.36500000000000e+10  2.06829154993536e-03  3.54230851002201e-04  1.70114262353090e-01 -8.68675768894624e-01  1.70114262353090e-01 -8.68675768894624e-01  2.06829154993536e-03  3.54230851002201e-04
 9.37000000000000e+10  2.08007855882896e-03  3.23534463347175e-04  1.54872680790651e-01 -8.71480697126099e-01  1.54872680790651e-01 -8.71480697126099e-01  2.08007855882896e-03  3.23534463347175e-04
 9.37500000000000e+10  2.09078269243010e-03  2.92447105746139e-04  1.39585034613792e-01 -8.74018241497301e-01  1.39585034613792e-01 -8.74018241497301e-01  2.09078269243010e-03  2.92447105746139e-04
 9.38000000000000e+10  2.10039102820026e-03  2.61006960837315e-04  1.24256013789707e-01 -8.76287648943380e-01  1.24256013789707e-01 -8.76287648943380e-01  2.10039102820026e-03  2.61006960837315e-04
 9.38500000000000e+10  2.10889198931104e-03  2.29252636688960e-04  1.08890320531603e-01 -8.78288248647100e-01  1.08890320531603e-01 -8.78288248647100e-01  2.10889198931104e-03  2.29252636688960e-04
 9.39000000000000e+10  2.11627535858826e-03  1.97223119393092e-04  9.34926678567019e-02 -8.80019452236708e-01  9.34926678567019e-02 -8.80019452236708e-01  2.11627535858826e-03  1.97223119393092e-04
 9.39500000000000e+10  2.12253229078428e-03  1.64957725204445e-04  7.80677781410796e-02 -8.81480753958542e-01  7.80677781410796e-02 -8.81480753958542e-01  2.12253229078428e-03  1.64957725204445e-04
 9.40000000000000e+10  2.12765532316844e-03  1.32496052283655e-04  6.26203816717735e-02 -8.82671730824314e-01  6.26203816717735e-02 -8.82671730824314e-01  2.12765532316844e-03  1.32496052283655e-04
 9.40500000000000e+10  2.13163838442053e-03  9.98779321039053e-05  4.71552151966024e-02 -8.83592042733036e-01  4.71552151966024e-02 -8.83592042733036e-01  2.13163838442053e-03  9.98779321039053e-05
 9.41000000000000e+10  2.13447680181590e-03  6.71433805803072e-05  3.16770204721458e-02 -8.84241432567546e-01  3.16770204721458e-02 -8.84241432567546e-01  2.13447680181590e-03  6.71433805803072e-05
 9.41500000000000e+10  2.13616730669589e-03  3.43325489824172e-05  1.61905428103255e-02 -8.84619726265606e-01  1.61905428103255e-02 -8.84619726265606e-01  2.13616730669589e-03  3.43325489824172e-05
 9.42000000000000e+10  2.13670803821640e-03  1.48567468977721e-06  7.00529624026775e-04 -8.84726832865574e-01  7.00529624026775e-04 -8.84726832865574e-01  2.13670803821640e-03  1.48567468977721e-06
 9.42500000000000e+10  2.13609854536866e-03 -3.13569681489350e-05 -1.47882710277569e-02 -8.84562744526593e-01 -1.47882710277569e-02 -8.84562744526593e-01  2.13609854536866e-03 -3.13569681489350e-05
 9.43000000000000e+10  2.13433978727335e-03 -6.41551179928726e-05 -3.02711118949054e-02 -8.84127536523355e-01 -3.02711118949054e-02 -8.84127536523355e-01  2.13433978727335e-03 -6.41551179928726e-05
 9.43500000000000e+10  2.13143413174378e-03 -9.68685752612538e-05 -4.57432479907033e-02 -8.83421367215382e-01 -4.57432479907033e-02 -8.83421367215382e-01  2.13143413174378e-03 -9.68685752612538e-05
 9.44000000000000e+10  2.12738535212564e-03 -1.29457251600784e-04 -6.11999380456141e-02 -8.82444477990882e-01 -6.11999380456141e-02 -8.82444477990882e-01  2.12738535212564e-03 -1.29457251600784e-04
 9.44500000000000e+10  2.12219862241085e-03 -1.61881219007351e-04 -7.66364459596827e-02 -8.81197193185175e-01 -7.66364459596827e-02 -8.81197193185175e-01  2.12219862241085e-03 -1.61881219007351e-04
 9.45000000000000e+10  2.11588051063893e-03 -1.94100758742535e-04 -9.20480422533493e-02 -8.79679919973726e-01 -9.20480422533493e-02 -8.79679919973726e-01  2.11588051063893e-03 -1.94100758742535e-04
 9.45500000000000e+10  2.10843897058809e-03 -2.26076409984260e-04 -1.07430005516005e-01 -8.77893148239812e-01 -1.07430005516005e-01 -8.77893148239812e-01  2.10843897058809e-03 -2.26076409984260e-04
 9.46000000000000e+10  2.09988333177005e-03 -2.57769018152524e-04 -1.22777623852019e-01 -8.75837450416874e-01 -1.22777623852019e-01 -8.75837450416874e-01  2.09988333177005e-03 -2.57769018152524e-04
 9.46500000000000e+10  2.09022428774139e-03 -2.89139782850854e-04 -1.38086196323627e-01 -8.73513481305605e-01 -1.38086196323627e-01 -8.73513481305605e-01  2.09022428774139e-03 -2.89139782850854e-04
 9.47000000000000e+10  2.07947388274318e-03 -3.20150305364724e-04 -1.53351034390459e-01 -8.70921977865822e-01 -1.53351034390459e-01 -8.70921977865822e-01  2.07947388274318e-03 -3.20150305364724e-04
 9.47500000000000e+10  2.06764549668895e-03 -3.50762635658961e-04 -1.68567463345036e-01 -8.68063758983192e-01 -1.68567463345036e-01 -8.68063758983192e-01  2.06764549668895e-03 -3.50762635658961e-04
 9.48000000000000e+10  2.05475382851692e-03 -3.80939318816573e-04 -1.83730823743994e-01 -8.64939725210892e-01 -1.83730823743994e-01 -8.64939725210892e-01  2.05475382851692e-03 -3.80939318816573e-04
 9.48500000000000e+10  2.04081487792948e-03 -4.10643440861897e-04 -1.98836472834392e-01 -8.61550858486283e-01 -1.98836472834392e-01 -8.61550858486283e-01  2.04081487792948e-03 -4.10643440861897e-04
 9.49000000000000e+10  2.02584592554055e-03 -4.39838673912563e-04 -2.13879785974919e-01 -8.57898221822670e-01 -2.13879785974919e-01 -8.57898221822670e-01  2.02584592554055e-03 -4.39838673912563e-04
 9.49500000000000e+10  2.00986551145737e-03 -4.68489320604704e-04 -2.28856158051335e-01 -8.53982958976269e-01 -2.28856158051335e-01 -8.53982958976269e-01  2.00986551145737e-03 -4.68489320604704e-04
 9.50000000000000e+10  1.99289341232162e-03 -4.96560357736886e-04 -2.43761004885843e-01 -8.49806294088464e-01 -2.43761004885843e-01 -8.49806294088464e-01  1.99289341232162e-03 -4.96560357736886e-04
 9.50500000000000e+10  1.97495061683922e-03 -5.24017479079970e-04 -2.58589764639927e-01 -8.45369531303480e-01 -2.58589764639927e-01 -8.45369531303480e-01  1.97495061683922e-03 -5.24017479079970e-04
 9.51000000000000e+10  1.95605929982874e-03 -5.50827137300043e-04 -2.73337899210223e-01 -8.40674054361582e-01 -2.73337899210223e-01 -8.40674054361582e-01  1.95605929982874e-03 -5.50827137300043e-04
 9.51500000000000e+10  1.93624279482136e-03 -5.76956584943671e-04 -2.88000895617002e-01 -8.35721326167926e-01 -2.88000895617002e-01 -8.35721326167926e-01  1.93624279482136e-03 -5.76956584943671e-04
 9.52000000000000e+10  1.91552556524389e-03 -6.02373914434810e-04 -3.02574267384847e-01 -8.30512888337208e-01 -3.02574267384847e-01 -8.30512888337208e-01  1.91552556524389e-03 -6.02373914434810e-04
 9.52500000000000e+10  1.89393317422361e-03 -6.27048097035283e-04 -3.17053555915084e-01 -8.25050360714227e-01 -3.17053555915084e-01 -8.25050360714227e-01  1.89393317422361e-03 -6.27048097035283e-04
 9.53000000000000e+10  1.87149225304983e-03 -6.50949020720420e-04 -3.31434331849573e-01 -8.19335440870538e-01 -3.31434331849573e-01 -8.19335440870538e-01  1.87149225304983e-03 -6.50949020720420e-04
 9.53500000000000e+10  1.84823046833170e-03 -6.74047526924362e-04 -3.45712196425395e-01 -8.13369903577345e-01 -3.45712196425395e-01 -8.13369903577345e-01  1.84823046833170e-03 -6.74047526924362e-04
 9.54000000000000e+10  1.82417648789358e-03 -6.96315446109977e-04 -3.59882782820136e-01 -8.07155600254754e-01 -3.59882782820136e-01 -8.07155600254754e-01  1.82417648789358e-03 -6.96315446109977e-04
 9.54500000000000e+10  1.79935994544840e-03 -7.17725632119434e-04 -3.73941757487145e-01 -8.00694458397650e-01 -3.73941757487145e-01 -8.00694458397650e-01  1.79935994544840e-03 -7.17725632119434e-04
 9.55000000000000e+10  1.77381140409458e-03 -7.38251995264660e-04 -3.87884821480622e-01 -7.93988480978261e-01 -3.87884821480622e-01 -7.93988480978261e-01  1.77381140409458e-03 -7.38251995264660e-04
 9.55500000000000e+10  1.74756231867889e-03 -7.57869534116145e-04 -4.01707711769914e-01 -7.87039745825687e-01 -4.01707711769914e-01 -7.87039745825687e-01  1.74756231867889e-03 -7.57869534116145e-04
 9.56000000000000e+10  1.72064499707489e-03 -7.76554365952520e-04 -4.15406202542725e-01 -7.79850404982530e-01 -4.15406202542725e-01 -7.79850404982530e-01  1.72064499707489e-03 -7.76554365952520e-04
 9.56500000000000e+10  1.69309256042046e-03 -7.94283755832364e-04 -4.28976106496822e-01 -7.72422684038852e-01 -4.28976106496822e-01 -7.72422684038852e-01  1.69309256042046e-03 -7.94283755832364e-04
 9.57000000000000e+10  1.66493890236834e-03 -8.11036144255161e-04 -4.42413276119836e-01 -7.64758881443645e-01 -4.42413276119836e-01 -7.64758881443645e-01  1.66493890236834e-03 -8.11036144255161e-04
 9.57500000000000e+10  1.63621864739460e-03 -8.26791173374634e-04 -4.55713604956765e-01 -7.56861367794045e-01 -4.55713604956765e-01 -7.56861367794045e-01  1.63621864739460e-03 -8.26791173374634e-04
 9.58000000000000e+10  1.60696710822054e-03 -8.41529711735581e-04 -4.68873028864797e-01 -7.48732585102495e-01 -4.68873028864797e-01 -7.48732585102495e-01  1.60696710822054e-03 -8.41529711735581e-04
 9.58500000000000e+10  1.57722024239764e-03 -8.55233877502249e-04 -4.81887527255077e-01 -7.40375046042088e-01 -4.81887527255077e-01 -7.40375046042088e-01  1.57722024239764e-03 -8.55233877502249e-04
 9.59000000000000e+10  1.54701460811077e-03 -8.67887060150771e-04 -4.94753124321020e-01 -7.31791333170320e-01 -4.94753124321020e-01 -7.31791333170320e-01  1.54701460811077e-03 -8.67887060150771e-04
 9.59500000000000e+10  1.51638731925250e-03 -8.79473940599430e-04 -5.07465890252795e-01 -7.22984098131507e-01 -5.07465890252795e-01 -7.22984098131507e-01  1.51638731925250e-03 -8.79473940599430e-04
 9.60000000000000e+10  1.48537599982468e-03 -8.89980509751849e-04 -5.20021942437651e-01 -7.13956060838071e-01 -5.20021942437651e-01 -7.13956060838071e-01  1.48537599982468e-03 -8.89980509751849e-04
 9.60500000000000e+10  1.45401873772302e-03 -8.99394085431082e-04 -5.32417446645672e-01 -7.04710008630990e-01 -5.32417446645672e-01 -7.04710008630990e-01  1.45401873772302e-03 -8.99394085431082e-04
 9.61000000000000e+10  1.42235403796106e-03 -9.07703327684170e-04 -5.44648618200584e-01 -6.95248795419664e-01 -5.44648618200584e-01 -6.95248795419664e-01  1.42235403796106e-03 -9.07703327684170e-04
 9.61500000000000e+10  1.39042077539185e-03 -9.14898252438392e-04 -5.56711723135311e-01 -6.85575340801446e-01 -5.56711723135311e-01 -6.85575340801446e-01  1.39042077539185e-03 -9.14898252438392e-04
 9.62000000000000e+10  1.35825814698465e-03 -9.20970243492838e-04 -5.68603079331914e-01 -6.75692629161093e-01 -5.68603079331914e-01 -6.75692629161093e-01  1.35825814698465e-03 -9.20970243492838e-04
 9.62500000000000e+10  1.32590562371495e-03 -9.25912062831703e-04 -5.80319057645540e-01 -6.65603708750451e-01 -5.80319057645540e-01 -6.65603708750451e-01  1.32590562371495e-03 -9.25912062831703e-04
 9.63000000000000e+10  1.29340290212812e-03 -9.29717859244799e-04 -5.91856083012023e-01 -6.55311690748657e-01 -5.91856083012023e-01 -6.55311690748657e-01  1.29340290212812e-03 -9.29717859244799e-04
 9.63500000000000e+10  1.26078985563469e-03 -9.32383175248163e-04 -6.03210635538845e-01 -6.44819748303123e-01 -6.03210635538845e-01 -6.44819748303123e-01  1.26078985563469e-03 -9.32383175248163e-04
 9.64000000000000e+10  1.22810648559825e-03 -9.33904952293717e-04 -6.14379251579126e-01 -6.34131115551576e-01 -6.14379251579126e-01 -6.34131115551576e-01  1.22810648559825e-03 -9.33904952293717e-04
 9.64500000000000e+10  1.19539287227462e-03 -9.34281534263562e-04 -6.25358524788271e-01 -6.23249086625513e-01 -6.25358524788271e-01 -6.23249086625513e-01  1.19539287227462e-03 -9.34281534263562e-04
 9.65000000000000e+10  1.16268912566392e-03 -9.33512669244306e-04 -6.36145107162950e-01 -6.12177014635353e-01 -6.36145107162950e-01 -6.12177014635353e-01  1.16268912566392e-03 -9.33512669244306e-04
 9.65500000000000e+10  1.13003533633494e-03 -9.31599509579787e-04 -6.46735710062139e-01 -6.00918310637589e-01 -6.46735710062139e-01 -6.00918310637589e-01  1.13003533633494e-03 -9.31599509579787e-04
 9.66000000000000e+10  1.09747152628160e-03 -9.28544610202246e-04 -6.57127105209906e-01 -5.89476442584234e-01 -6.57127105209906e-01 -5.89476442584234e-01  1.09747152628160e-03 -9.28544610202246e-04
 9.66500000000000e+10  1.06503759987358e-03 -9.24351925244702e-04 -6.67316125679598e-01 -5.77854934254930e-01 -6.67316125679598e-01 -5.77854934254930e-01  1.06503759987358e-03 -9.24351925244702e-04
 9.67000000000000e+10  1.03277329495883e-03 -9.19026802938196e-04 -6.77299666859104e-01 -5.66057364172072e-01 -6.77299666859104e-01 -5.66057364172072e-01  1.03277329495883e-03 -9.19026802938196e-04
 9.67500000000000e+10  1.00071813417986e-03 -9.12575978801297e-04 -6.87074687397030e-01 -5.54087364499158e-01 -6.87074687397030e-01 -5.54087364499158e-01  1.00071813417986e-03 -9.12575978801297e-04
 9.68000000000000e+10  9.68911376562663e-04 -9.05007567130391e-04 -6.96638210129334e-01 -5.41948619922843e-01 -6.96638210129334e-01 -5.41948619922843e-01  9.68911376562663e-04 -9.05007567130391e-04
 9.68500000000000e+10  9.37391969436665e-04 -8.96331050800650e-04 -7.05987322986252e-01 -5.29644866518964e-01 -7.05987322986252e-01 -5.29644866518964e-01  9.37391969436665e-04 -8.96331050800650e-04
 9.69000000000000e+10  9.06198500746989e-04 -8.86557269391956e-04 -7.15119179879181e-01 -5.17179890602900e-01 -7.15119179879181e-01 -5.17179890602900e-01  9.06198500746989e-04 -8.86557269391956e-04
 9.69500000000000e+10  8.75369151814581e-04 -8.75698405653011e-04 -7.24031001567273e-01 -5.04557527564624e-01 -7.24031001567273e-01 -5.04557527564624e-01  8.75369151814581e-04 -8.75698405653011e-04
 9.70000000000000e+10  8.44941650604148e-04 -8.63767970321980e-04 -7.32720076503469e-01 -4.91781660688808e-01 -7.32720076503469e-01 -4.91781660688808e-01  8.44941650604148e-04 -8.63767970321980e-04
 9.70500000000000e+10  8.14953225556352e-04 -8.50780785321537e-04 -7.41183761659711e-01 -4.78856219960332e-01 -7.41183761659711e-01 -4.78856219960332e-01  8.14953225556352e-04 -8.50780785321537e-04
 9.71000000000000e+10  7.85440560039778e-04 -8.36752965349565e-04 -7.49419483331090e-01 -4.65785180855573e-01 -7.49419483331090e-01 -4.65785180855573e-01  7.85440560039778e-04 -8.36752965349565e-04
 9.71500000000000e+10  7.56439747480786e-04 -8.21701897888807e-04 -7.57424737918653e-01 -4.52572563119866e-01 -7.57424737918653e-01 -4.52572563119866e-01  7.56439747480786e-04 -8.21701897888807e-04
 9.72000000000000e+10  7.27986247223940e-04 -8.05646221659410e-04 -7.65197092690700e-01 -4.39222429531438e-01 -7.65197092690700e-01 -4.39222429531438e-01  7.27986247223940e-04 -8.05646221659410e-04
 9.72500000000000e+10  7.00114841177345e-04 -7.88605803541506e-04 -7.72734186522249e-01 -4.25738884652307e-01 -7.72734186522249e-01 -4.25738884652307e-01  7.00114841177345e-04 -7.88605803541506e-04
 9.73000000000000e+10  6.72859591297183e-04 -7.70601713996650e-04 -7.80033730612511e-01 -4.12126073566433e-01 -7.80033730612511e-01 -4.12126073566433e-01  6.72859591297183e-04 -7.70601713996650e-04
 9.73500000000000e+10  6.46253797962305e-04 -7.51656201018017e-04 -7.87093509180127e-01 -3.98388180605563e-01 -7.87093509180127e-01 -3.98388180605563e-01  6.46253797962305e-04 -7.51656201018017e-04
 9.74000000000000e+10  6.20329959289430e-04 -7.31792662641921e-04 -7.93911380135959e-01 -3.84529428063139e-01 -7.93911380135959e-01 -3.84529428063139e-01  6.20329959289430e-04 -7.31792662641921e-04
 9.74500000000000e+10  5.95119731439954e-04 -7.11035618054342e-04 -8.00485275733238e-01 -3.70554074896670e-01 -8.00485275733238e-01 -3.70554074896670e-01  5.95119731439954e-04 -7.11035618054342e-04
 9.75000000000000e+10  5.70653889965986e-04 -6.89410677328355e-04 -8.06813203194858e-01 -3.56466415418972e-01 -8.06813203194858e-01 -3.56466415418972e-01  5.70653889965986e-04 -6.89410677328355e-04
 9.75500000000000e+10  5.46962292242053e-04 -6.66944509829724e-04 -8.12893245317637e-01 -3.42270777978672e-01 -8.12893245317637e-01 -3.42270777978672e-01  5.46962292242053e-04 -6.66944509829724e-04
 9.76000000000000e+10  5.24073841031088e-04 -6.43664811329465e-04 -8.18723561053349e-01 -3.27971523630374e-01 -8.18723561053349e-01 -3.27971523630374e-01  5.24073841031088e-04 -6.43664811329465e-04
 9.76500000000000e+10  5.02016449225070e-04 -6.19600269864614e-04 -8.24302386066358e-01 -3.13573044794946e-01 -8.24302386066358e-01 -3.13573044794946e-01  5.02016449225070e-04 -6.19600269864614e-04
 9.77000000000000e+10  4.80817005807375e-04 -5.94780530387822e-04 -8.29628033267695e-01 -2.99079763910211e-01 -8.29628033267695e-01 -2.99079763910211e-01  4.80817005807375e-04 -5.94780530387822e-04
 9.77500000000000e+10  4.60501343075572e-04 -5.69236158251279e-04 -8.34698893325393e-01 -2.84496132072636e-01 -8.34698893325393e-01 -2.84496132072636e-01  4.60501343075572e-04 -5.69236158251279e-04
 9.78000000000000e+10  4.41094205165872e-04 -5.42998601568283e-04 -8.39513435150921e-01 -2.69826627670328e-01 -8.39513435150921e-01 -2.69826627670328e-01  4.41094205165872e-04 -5.42998601568283e-04
 9.78500000000000e+10  4.22619217917249e-04 -5.16100152499709e-04 -8.44070206361608e-01 -2.55075755007735e-01 -8.44070206361608e-01 -2.55075755007735e-01  4.22619217917249e-04 -5.16100152499709e-04
 9.79000000000000e+10  4.05098860112130e-04 -4.88573907512538e-04 -8.48367833718897e-01 -2.40248042922510e-01 -8.48367833718897e-01 -2.40248042922510e-01  4.05098860112130e-04 -4.88573907512538e-04
 9.79500000000000e+10  3.88554436128086e-04 -4.60453726660029e-04 -8.52405023542258e-01 -2.25348043395044e-01 -8.52405023542258e-01 -2.25348043395044e-01  3.88554436128086e-04 -4.60453726660029e-04
 9.80000000000000e+10  3.73006050034672e-04 -4.31774191932809e-04 -8.56180562098697e-01 -2.10380330150932e-01 -8.56180562098697e-01 -2.10380330150932e-01  3.73006050034672e-04 -4.31774191932809e-04
 9.80500000000000e+10  3.58472581166537e-04 -4.02570564732473e-04 -8.59693315967699e-01 -1.95349497256968e-01 -8.59693315967699e-01 -1.95349497256968e-01  3.58472581166537e-04 -4.02570564732473e-04
 9.81000000000000e+10  3.44971661201856e-04 -3.72878742520302e-04 -8.62942232381529e-01 -1.80260157710911e-01 -8.62942232381529e-01 -1.80260157710911e-01  3.44971661201856e-04 -3.72878742520302e-04
 9.81500000000000e+10  3.32519652774897e-04 -3.42735214693858e-04 -8.65926339540742e-01 -1.65116942025697e-01 -8.65926339540742e-01 -1.65116942025697e-01  3.32519652774897e-04 -3.42735214693858e-04
 9.82000000000000e+10  3.21131629648030e-04 -3.12177017746085e-04 -8.68644746904858e-01 -1.49924496808304e-01 -8.68644746904858e-01 -1.49924496808304e-01  3.21131629648030e-04 -3.12177017746085e-04
 9.82500000000000e+10  3.10821358467904e-04 -2.81241689761723e-04 -8.71096645458073e-01 -1.34687483333866e-01 -8.71096645458073e-01 -1.34687483333866e-01  3.10821358467904e-04 -2.81241689761723e-04
 9.83000000000000e+10  3.01601282126615e-04 -2.49967224307088e-04 -8.73281307949964e-01 -1.19410576115323e-01 -8.73281307949964e-01 -1.19410576115323e-01  3.01601282126615e-04 -2.49967224307088e-04
 9.83500000000000e+10  2.93482504749172e-04 -2.18392023770099e-04 -8.75198089111071e-01 -1.04098461469276e-01 -8.75198089111071e-01 -1.04098461469276e-01  2.93482504749172e-04 -2.18392023770099e-04
 9.84000000000000e+10  2.86474778324964e-04 -1.86554852207288e-04 -8.76846425843341e-01 -8.87558360782016e-02 -8.76846425843341e-01 -8.87558360782016e-02  2.86474778324964e-04 -1.86554852207288e-04
 9.84500000000000e+10  2.80586490999094e-04 -1.54494787756207e-04 -8.78225837385340e-01 -7.33874055497079e-02 -8.78225837385340e-01 -7.33874055497079e-02  2.80586490999094e-04 -1.54494787756207e-04
 9.85000000000000e+10  2.75824657038112e-04 -1.22251174671376e-04 -8.79335925452198e-01 -5.79978829731445e-02 -8.79335925452198e-01 -5.79978829731445e-02  2.75824657038112e-04 -1.22251174671376e-04
 9.85500000000000e+10  2.72194908481634e-04 -8.98635750428136e-05 -8.80176374350250e-01 -4.25919874740522e-02 -8.80176374350250e-01 -4.25919874740522e-02  2.72194908481634e-04 -8.98635750428136e-05
 9.86000000000000e+10  2.69701488489633e-04 -5.73717202562505e-05 -8.80746951066338e-01 -2.71744427668903e-02 -8.80746951066338e-01 -2.71744427668903e-02  2.69701488489633e-04 -5.73717202562505e-05
 9.86500000000000e+10  2.68347246394915e-04 -2.48154622546022e-05 -8.81047505331738e-01 -1.17499757064856e-02 -8.81047505331738e-01 -1.17499757064856e-02  2.68347246394915e-04 -2.48154622546022e-05
 9.87000000000000e+10  2.68133634463617e-04  7.76527533935183e-06 -8.81077969660711e-01  3.67668516135167e-03 -8.81077969660711e-01  3.67668516135167e-03  2.68133634463617e-04  7.76527533935183e-06
 9.87500000000000e+10  2.69060706369858e-04  4.03305461793424e-05 -8.80838359363658e-01  1.91008110495992e-02 -8.80838359363658e-01  1.91008110495992e-02  2.69060706369858e-04  4.03305461793424e-05
 9.88000000000000e+10  2.71127117385642e-04  7.28404301708917e-05 -8.80328772534876e-01  3.45176743797423e-02 -8.80328772534876e-01  3.45176743797423e-02  2.71127117385642e-04  7.28404301708917e-05
 9.88500000000000e+10  2.74330126284105e-04  1.05255082405404e-04 -8.79549390014935e-01  4.99225502309601e-02 -8.79549390014935e-01  4.99225502309601e-02  2.74330126284105e-04  1.05255082405404e-04
 9.89000000000000e+10  2.78665598954953e-04  1.37534781993298e-04 -8.78500475327664e-01  6.53107177884195e-02 -8.78500475327664e-01  6.53107177884195e-02  2.78665598954953e-04  1.37534781993298e-04
 9.89500000000000e+10  2.84128013727281e-04  1.69639980736077e-04 -8.77182374591801e-01  8.06774617901452e-02 -8.77182374591801e-01  8.06774617901452e-02  2.84128013727281e-04  1.69639980736077e-04
 9.90000000000000e+10  2.90710468391333e-04  2.01531351577811e-04 -8.75595516407305e-01  9.60180739720280e-02 -8.75595516407305e-01  9.60180739720280e-02  2.90710468391333e-04  2.01531351577811e-04
 9.90500000000000e+10  2.98404688912395e-04  2.33169836776606e-04 -8.73740411716389e-01  1.11327854510577e-01 -8.73740411716389e-01  1.11327854510577e-01  2.98404688912395e-04  2.33169836776606e-04
 9.91000000000000e+10  3.07201039824823e-04  2.64516695737376e-04 -8.71617653639311e-01  1.26602113462975e-01 -8.71617653639311e-01  1.26602113462975e-01  3.07201039824823e-04  2.64516695737376e-04
 9.91500000000000e+10  3.17088536292597e-04  2.95533552446667e-04 -8.69227917284965e-01  1.41836172203945e-01 -8.69227917284965e-01  1.41836172203945e-01  3.17088536292597e-04  2.95533552446667e-04
 9.92000000000000e+10  3.28054857822275e-04  3.26182442452261e-04 -8.66571959536372e-01  1.57025364858955e-01 -8.66571959536372e-01  1.57025364858955e-01  3.28054857822275e-04  3.26182442452261e-04
 9.92500000000000e+10  3.40086363610830e-04  3.56425859329259e-04 -8.63650618811074e-01  1.72165039733489e-01 -8.63650618811074e-01  1.72165039733489e-01  3.40086363610830e-04  3.56425859329259e-04
 9.93000000000000e+10  3.53168109509718e-04  3.86226800576552e-04 -8.60464814796578e-01  1.87250560737736e-01 -8.60464814796578e-01  1.87250560737736e-01  3.53168109509718e-04  3.86226800576552e-04
 9.93500000000000e+10  3.67283866582703e-04  4.15548812886704e-04 -8.57015548160872e-01  2.02277308806431e-01 -8.57015548160872e-01  2.02277308806431e-01  3.67283866582703e-04  4.15548812886704e-04
 9.94000000000000e+10  3.82416141236142e-04  4.44356036734717e-04 -8.53303900238169e-01  2.17240683313234e-01 -8.53303900238169e-01  2.17240683313234e-01  3.82416141236142e-04  4.44356036734717e-04
 9.94500000000000e+10  3.98546196895953e-04  4.72613250230269e-04 -8.49331032689894e-01  2.32136103479479e-01 -8.49331032689894e-01  2.32136103479479e-01  3.98546196895953e-04  4.72613250230269e-04
 9.95000000000000e+10  4.15654077203606e-04  5.00285912180659e-04 -8.45098187141122e-01  2.46959009776506e-01 -8.45098187141122e-01  2.46959009776506e-01  4.15654077203606e-04  5.00285912180659e-04
 9.95500000000000e+10  4.33718630704229e-04  5.27340204310889e-04 -8.40606684792476e-01  2.61704865321543e-01 -8.40606684792476e-01  2.61704865321543e-01  4.33718630704229e-04  5.27340204310889e-04
 9.96000000000000e+10  4.52717536994992e-04  5.53743072590280e-04 -8.35857926007709e-01  2.76369157266308e-01 -8.35857926007709e-01  2.76369157266308e-01  4.52717536994992e-04  5.53743072590280e-04
 9.96500000000000e+10  4.72627334301369e-04  5.79462267614147e-04 -8.30853389877006e-01  2.90947398178271e-01 -8.30853389877006e-01  2.90947398178271e-01  4.72627334301369e-04  5.79462267614147e-04
 9.97000000000000e+10  4.93423448447879e-04  6.04466383992203e-04 -8.25594633756215e-01  3.05435127413885e-01 -8.25594633756215e-01  3.05435127413885e-01  4.93423448447879e-04  6.04466383992203e-04
 9.97500000000000e+10  5.15080223187426e-04  6.28724898694414e-04 -8.20083292782110e-01  3.19827912483508e-01 -8.20083292782110e-01  3.19827912483508e-01  5.15080223187426e-04  6.28724898694414e-04
 9.98000000000000e+10  5.37570951851162e-04  6.52208208308512e-04 -8.14321079363854e-01  3.34121350407540e-01 -8.14321079363854e-01  3.34121350407540e-01  5.37570951851162e-04  6.52208208308512e-04
 9.98500000000000e+10  5.60867910280668e-04  6.74887665163440e-04 -8.08309782650811e-01  3.48311069063390e-01 -8.08309782650811e-01  3.48311069063390e-01  5.60867910280668e-04  6.74887665163440e-04
 9.99000000000000e+10  5.84942391001356e-04  6.96735612274035e-04 -8.02051267976886e-01  3.62392728522841e-01 -8.02051267976886e-01  3.62392728522841e-01  5.84942391001356e-04  6.96735612274035e-04
 9.99500000000000e+10  6.09764738594796e-04  7.17725417065264e-04 -7.95547476281565e-01  3.76362022379380e-01 -7.95547476281565e-01  3.76362022379380e-01  6.09764738594796e-04  7.17725417065264e-04
 1.00000000000000e+11  6.35304386227387e-04  7.37831503834028e-04 -7.88800423507796e-01  3.90214679065210e-01 -7.88800423507796e-01  3.90214679065210e-01  6.35304386227387e-04  7.37831503834028e-04
